14
SMD(acetonitrile)-opt r2scan/def2-svp q=0 m=1
C -0.22364946 -1.21330247 -0.00267289
C 1.17204724 -1.20539963 0.00004390
C 1.88690771 -0.00002287 0.00259408
C 1.17206673 1.20536544 0.00004724
C -0.22362984 1.21329022 -0.00266966
C -0.95082070 -0.00000022 -0.00102686
N -2.32628703 0.00001088 0.05320201
H -2.79419168 0.84937803 -0.24856108
H -2.79420569 -0.84934697 -0.24856559
H -0.77183158 2.16165527 -0.00591141
H 1.70935243 2.15980427 -0.00290814
H 2.98070326 -0.00003166 0.00334581
H 1.70931774 -2.15984700 -0.00291400
H -0.77186629 -2.16165878 -0.00591710
