56
cfg7 ip=3.5 off=0.0 par E=-31287.8216 fmax=0.046
C        4.96614770       0.02405322      -0.02748730       0.02627933       0.00206827      -0.00678498
N        3.50669245      -0.03419418       0.06670018      -0.03705421      -0.01258243       0.00824936
C        2.81793586      -1.14908272      -0.28523047      -0.02617348      -0.01867101      -0.02387646
C        1.46610655      -1.22211801      -0.19114229      -0.02501799      -0.00166994      -0.01853757
C        0.69287399      -0.11557651       0.27753203      -0.00732075       0.01525400      -0.01834804
C       -0.72574229      -0.09137106       0.21447975       0.00869093       0.00011379      -0.02410523
C       -1.48689115      -1.18151713      -0.31575679       0.01390921      -0.00498648      -0.00916722
C       -2.81872416      -1.07112864      -0.53400132       0.01585639      -0.01429819      -0.01599599
N       -3.50524925       0.06928806      -0.25181051       0.03688863       0.00301935       0.01912237
C       -4.94785381       0.13038194      -0.49134481      -0.02561754       0.00324845      -0.00883347
C       -2.82377957       1.13264899       0.24427634       0.02553747       0.02892638      -0.00519465
C       -1.48890312       1.08631291       0.48402175       0.02840700       0.01217747      -0.00889882
C        1.46310056       1.03933381       0.62656130      -0.01084963       0.01074498      -0.00661022
C        2.81201870       1.04928081       0.50827465      -0.01798154       0.02051525      -0.00386380
H        5.33650257      -0.92019894      -0.41410093       0.01737501      -0.00763978      -0.02353284
H        5.27147728       0.82550745      -0.69639826      -0.01192709       0.01518293      -0.02209891
H        5.39265286       0.19650545       0.95925462       0.03944685       0.01388698      -0.00796488
H        3.40456836      -1.97343386      -0.66515272       0.02634571      -0.00270544       0.01114602
H        1.00249591      -2.14166157      -0.51460310       0.00817165       0.01827726      -0.01766145
H       -1.02237423      -2.11704129      -0.58900321      -0.00622572       0.01791968      -0.01685135
H       -3.39472431      -1.87765302      -0.96707115      -0.02825144       0.00236534       0.01025973
H       -5.45589602      -0.60853506       0.12610446      -0.03836738      -0.00426881      -0.01809129
H       -5.31088226       1.11987720      -0.23183319      -0.01530424       0.02132100      -0.01474809
H       -5.16688517      -0.06428070      -1.53876257       0.01437924       0.00156674      -0.02560503
H       -3.40010692       2.02972444       0.42081987      -0.02683063      -0.00427712       0.00693183
H       -1.02789797       1.98768156       0.85835559      -0.00573838      -0.00250447      -0.02625777
H        0.99518834       1.95135657       0.96548419       0.00765300      -0.00300273      -0.02325994
H        3.39826668       1.92919598       0.73597673       0.02781634      -0.00942277       0.00973802
C        4.77049173      -1.29211089       3.74014239       0.02221063      -0.00393724       0.00814434
N        3.33765673      -1.21359118       3.44985936      -0.02885048       0.00098138      -0.02121728
C        2.66417366      -2.28238604       2.94982571      -0.02568453      -0.02682294       0.00261817
C        1.33048612      -2.24557207       2.71203055      -0.01833208      -0.01062054       0.00347356
C        0.55529207      -1.07633472       2.99189639      -0.01147642      -0.00278129       0.02316423
C       -0.86188441      -1.06748702       2.92340637       0.00809125      -0.01230521       0.01918138
C       -1.62211696      -2.23025577       2.58161468       0.00904872      -0.01481920       0.00994468
C       -2.97301828      -2.24539712       2.68943930       0.01542336      -0.02085477       0.00986440
N       -3.67713294      -1.16168512       3.11259669       0.03271817       0.01167745      -0.01334062
C       -5.13204288      -1.23825534       3.25684393      -0.02302814      -0.00160223       0.00689811
C       -2.99612506      -0.03979990       3.46429539       0.01970532       0.01844920       0.02115487
C       -1.64606337       0.03934804       3.37777521       0.02212617       0.00563064       0.01260606
C        1.30560145       0.01559945       3.53178815      -0.00585455       0.00568119       0.01550024
C        2.64026888      -0.08423949       3.74554046      -0.02289494       0.00964817       0.01886043
H        5.19861895      -2.12251433       3.18631973       0.03001318      -0.01574105       0.01441131
H        5.25419447      -0.37002620       3.42569356       0.02802677       0.01064533       0.03463329
H        4.94220489      -1.44362741       4.80428581      -0.01174982      -0.00614286       0.01741049
H        3.24773238      -3.17480181       2.77170646       0.03081683       0.00967448      -0.00372675
H        0.87720677      -3.14787171       2.33012048       0.01123769       0.00317801       0.01947957
H       -1.14774194      -3.14169212       2.25095152      -0.00019173       0.00134924       0.02634471
H       -3.55352928      -3.12800059       2.45823654      -0.02076703       0.00475615      -0.00969356
H       -5.40364890      -1.78386986       4.15873707       0.00994678      -0.00638695       0.01820873
H       -5.53552659      -0.23137990       3.31190036      -0.03162332       0.00395665       0.01874322
H       -5.55514558      -1.74218235       2.39075675      -0.03028833      -0.02955873       0.01761292
H       -3.58977617       0.78218182       3.83939747      -0.02906197      -0.00483092      -0.01307031
H       -1.18955309       0.96461997       3.69553867      -0.01273067      -0.01466561       0.01118890
H        0.83407448       0.94569876       3.81037398      -0.00308025      -0.01703247       0.01988774
H        3.21074811       0.72674914       4.17709140       0.02215208       0.00191537      -0.00744197
