44
anthraquinone/red1 q=-1 m=2 E=-30287.653018eV model=uma-s-1p2p1
C        7.11642404      -1.81568040      -0.05418412      -0.00685937       0.00471071       0.00141731
C        6.00170568      -0.80820984      -0.14520433      -0.00284993       0.01134948       0.00273114
C        6.00285154       0.33126877       0.64942942       0.00070516       0.01084627       0.00301434
C        4.99616352       1.28120124       0.53470247      -0.00210818       0.00675698      -0.00491955
C        3.96623167       1.11941761      -0.38048475      -0.00641425      -0.00397120       0.00262348
C        2.88831295       2.16658280      -0.55020829      -0.00204461       0.00061429      -0.00167638
C        3.94812440      -0.03147845      -1.16335622       0.00832462       0.00184904       0.00158016
C        4.95146117      -0.97878448      -1.04472129      -0.00038089      -0.00403162       0.00014816
O        1.59588503       1.62215171      -0.65040501      -0.00209752      -0.00189611       0.01058721
C        1.09226344       1.19494293       0.62029858      -0.00555005      -0.00675315       0.00390998
C       -0.20581989       0.47300171       0.44012226       0.00260516      -0.00216074      -0.01040582
C       -0.20557747      -0.87607698       0.01451920       0.00477591       0.00065569      -0.00306936
C       -1.38566871      -1.54185744      -0.17495611       0.00419957       0.00196167      -0.00074626
C       -2.62564083      -0.90617906       0.04940452       0.00879546       0.00104193      -0.00861848
C       -3.85442664      -1.65505374      -0.16913904       0.00072457       0.00574116       0.00014756
O       -3.84982263      -2.85048019      -0.53840718       0.00455101       0.00086013       0.00023415
C       -5.09483653      -0.92236950       0.06302381      -0.00717285       0.00055316       0.00325127
C       -6.32342539      -1.57959049      -0.14647308      -0.00989015       0.00432485      -0.00009798
C       -7.51516132      -0.93028534       0.04872708      -0.00411137      -0.00108129       0.00382724
C       -7.52357140       0.41520675       0.46765779      -0.00629219      -0.00802044       0.00194406
C       -6.33940127       1.07238729       0.68224389      -0.00661797      -0.00610476       0.00144912
C       -5.10337261       0.42452471       0.48721989      -0.00476417       0.00328054       0.00093088
C       -3.87053436       1.16735421       0.72596394       0.00407872       0.00598513      -0.00286770
O       -3.87669510       2.35646038       1.11294063      -0.00367301       0.00429919       0.00278693
C       -2.63338880       0.43965470       0.47813286       0.00877080       0.00292803      -0.00540729
C       -1.40354218       1.10255902       0.66420053       0.01080797      -0.00503436      -0.00309643
H        7.53515243      -1.84998169       0.95196904       0.00166171      -0.00966155      -0.00221790
H        7.92744592      -1.55881701      -0.74001240       0.00253982      -0.00969919       0.00372714
H        6.76954341      -2.81563301      -0.31501533      -0.00426024      -0.00052730       0.00691212
H        6.79425875       0.47430311       1.37686670       0.01061514       0.00126984      -0.00466152
H        5.00599336       2.15723320       1.17450799       0.00880157      -0.00567392      -0.00430479
H        3.05696992       2.71465207      -1.48001365      -0.00323842       0.00046285      -0.00871234
H        2.94676414       2.89017538       0.27509582      -0.00379454       0.00073301      -0.00163012
H        3.12992535      -0.18421895      -1.85715123      -0.00101622       0.01119122       0.01615727
H        4.91976005      -1.87117808      -1.65968679      -0.00288970      -0.00608579      -0.00457754
H        1.83372762       0.54018416       1.09672434      -0.00646294      -0.00137825      -0.00342623
H        0.95731452       2.07798072       1.25771512       0.00110869      -0.00977847       0.00309736
H        0.74174012      -1.37781151      -0.15854230      -0.00255920       0.00937979      -0.00417028
H       -1.41004862      -2.57426103      -0.49982819       0.00275485       0.00461866       0.00424017
H       -6.28421454      -2.61242075      -0.46848632      -0.00114278       0.00295269       0.00012014
H       -8.45181546      -1.44974685      -0.11893046      -0.00093421       0.00027569       0.00027286
H       -8.46693964       0.92742403       0.61994329       0.00585149       0.00081846       0.00017706
H       -6.31387191       2.10535222       1.00577087       0.00849087      -0.00866544      -0.00413921
H       -1.44024358       2.13609583       0.98971400      -0.00303820      -0.00893669       0.00345823
