29
tempo_parent/rad q=0 m=2 E=-13161.386255eV conf=6 model=uma-s-1p2p1
C        1.72717576      -1.41794367       0.12414439      -0.00012805      -0.00130849      -0.00041704
C        1.25131649      -0.00318088       0.47058227      -0.00113579       0.00065984       0.00692314
C        2.08599015       0.53839693       1.62779997      -0.00137747      -0.00055868       0.00634568
C        1.37811181       0.93776378      -0.72878527       0.00106114       0.00219823      -0.00329512
C        0.30993012       0.71336278      -1.78692052       0.00390008      -0.00007899       0.00556733
C       -1.05839856       0.92154870      -1.15800343       0.00030794      -0.00243860      -0.00378539
C       -1.33659082      -0.01935751       0.01590886       0.00014880      -0.00266590       0.00689830
C       -2.52149490       0.51079648       0.81859140       0.00347615      -0.00043614       0.00593804
C       -1.64938966      -1.43916826      -0.46838299       0.00009741      -0.00086955      -0.00023639
N       -0.16286539      -0.05967629       0.92925192      -0.00364851       0.00097131      -0.01133323
O       -0.35682338      -0.62101427       2.05559104       0.00200763       0.00959841       0.00584449
H        2.80654736      -1.41136723      -0.03615077       0.00280580      -0.00363047       0.00087747
H        1.25447719      -1.80401943      -0.77816041      -0.00187164      -0.00050950       0.00387886
H        1.50230456      -2.09071991       0.95137469       0.00010574      -0.00034529      -0.00492848
H        2.07092151      -0.14513999       2.47339607       0.00333704      -0.00263766      -0.00519981
H        3.11670538       0.67013091       1.29369763      -0.00162419       0.00579783      -0.00315992
H        1.70087329       1.50434907       1.95724044      -0.00619716      -0.00051319       0.00209732
H        2.38073460       0.81418323      -1.14453771       0.00362150       0.00503631       0.00029915
H        1.30703998       1.97047482      -0.37245103       0.00311859      -0.00290855      -0.01010446
H        0.44971317       1.41576483      -2.61080090      -0.00064157       0.00146501       0.00161280
H        0.39221709      -0.28819571      -2.21714739       0.00114921      -0.01133867       0.01148185
H       -1.85743811       0.78363942      -1.89017632      -0.00647120      -0.00231342      -0.00819504
H       -1.12843101       1.95454192      -0.80198362      -0.00464300       0.00591354       0.00099986
H       -2.28164950       1.48000529       1.25810824       0.00619176      -0.00121818      -0.00015835
H       -2.78881956      -0.17443261       1.61966824      -0.00457528      -0.00202255      -0.00361409
H       -3.37753811       0.63248531       0.15262917       0.00069344       0.00709149      -0.00440939
H       -1.70491046      -2.11255665       0.38668709       0.00449968       0.00014809       0.00284193
H       -2.61290682      -1.44580732      -0.98048250      -0.00168234      -0.00044241      -0.00460626
H       -0.89680282      -1.81486305      -1.16068826      -0.00252574      -0.00264384       0.00183687
