13
SMD(acetonitrile)-opt r2scan/def2-svp q=0 m=1
C 2.33118793 -0.06278179 0.17297324
F 2.18692229 -1.26874841 -0.37949662
F 3.51645623 0.42885239 -0.15760273
F 2.26487910 -0.19482372 1.50051638
C 1.21746869 0.88492004 -0.31287815
O 1.38702498 1.92522469 -0.85778691
O 0.01800306 0.28521546 -0.01343530
C -1.18751654 0.93011092 -0.15566866
O -1.36853696 2.09094570 -0.32147801
C -2.28939247 -0.13940753 -0.02949790
F -3.48146094 0.42364328 -0.15968504
F -2.13562601 -1.06540025 -0.97861197
F -2.21323890 -0.73788601 1.16161456
