28
SMD(acetonitrile)-opt r2scan/def2-svp q=2 m=1
C 4.94253781 0.37142553 -0.53172543
N 3.48712969 0.27772117 -0.34820752
C 2.68934242 1.25714179 -0.82865659
C 1.31362815 1.17479175 -0.70865651
C 0.73401861 0.06442844 -0.07179670
C -0.73125275 -0.04621121 0.08114631
C -1.60294185 0.49619053 -0.87796327
C -2.97084251 0.37649511 -0.71094260
N -3.48410280 -0.24974261 0.37123805
C -4.94080900 -0.39765927 0.50127672
C -2.67219453 -0.77924002 1.31310359
C -1.29667776 -0.69532835 1.19164540
C 1.59076209 -0.93646146 0.41682505
C 2.95919976 -0.80685420 0.26145574
H 5.23258570 1.42779082 -0.53765107
H 5.43956102 -0.15599898 0.28973425
H 5.20736626 -0.09521500 -1.49141418
H 3.18989795 2.10308213 -1.30317532
H 0.70999032 1.99909180 -1.09303285
H -1.23147742 0.99763643 -1.77329546
H -3.68966224 0.77230115 -1.43060680
H -5.20213337 -0.42773579 1.56466804
H -5.24441974 -1.33555350 0.01441705
H -5.42984551 0.45207906 0.01251198
H -3.16115249 -1.26358995 2.16022925
H -0.67987362 -1.11907386 1.98612245
H 1.20671403 -1.83455846 0.90412203
H 3.66714484 -1.55845103 0.61531612
