15
methylpyridinium/red q=0 m=2 E=-7840.265447eV conf=0 model=uma-s-1p2p1
C        2.14003010       0.06067003       0.01154598      -0.00265605       0.00033542      -0.00352441
N        0.71150270       0.00104054       0.20826893       0.00753135       0.00104294      -0.00863062
C       -0.02793334       1.18266330       0.19094227       0.00367600      -0.00750485      -0.00716391
C       -1.38037643       1.16199085       0.07608416       0.00662944       0.00484348       0.00122449
C       -2.08405884      -0.05282673      -0.07612176       0.00595237       0.00051536      -0.00245623
C       -1.31200107      -1.23339749      -0.14401547       0.00671351      -0.00483016      -0.00407054
C        0.04007580      -1.19772513      -0.02940698       0.00319741       0.00831729      -0.00176684
H        2.55003442       0.90890084       0.55924185      -0.00444390      -0.01038703      -0.00540833
H        2.40623910       0.16600866      -1.04772659      -0.00742442      -0.00093425       0.01415867
H        2.60153395      -0.84824161       0.39655149      -0.00488970       0.01106854      -0.00428967
H        0.54197373       2.09333679       0.30322898      -0.00408381      -0.00707955       0.01102734
H       -1.90705326       2.10605925       0.10437259      -0.00387721       0.00982136      -0.00660965
H       -3.15734725      -0.07396869      -0.17873550       0.00249740      -0.00105333       0.01282160
H       -1.78417409      -2.19484210      -0.29319551      -0.00393539      -0.00883194      -0.00756861
H        0.66155447      -2.07966856      -0.08103436      -0.00488705       0.00467671       0.01225671
