14
SMD(acetonitrile)-opt r2scan/def2-svp q=2 m=1
C -4.26916752 3.20558938 -1.15580539
C -4.49230647 2.28016060 -0.17554790
S -3.11135799 1.68919159 0.63547329
S -2.63863832 3.61202079 -1.45578206
C -1.97466498 2.59479355 -0.25815764
C -0.55770692 2.50454695 -0.01850713
S 0.51330088 3.79093887 -0.34895351
S 0.17109064 1.10014027 0.61912938
C 1.92979992 2.98077730 0.15262121
C 1.76511121 1.71039763 0.62807388
H 2.88602102 3.51183291 0.08522238
H 2.56929215 1.06245023 0.99478261
H -5.04600893 3.68567688 -1.76165362
H -5.47646104 1.90783063 0.13072244
