24
bm_2_tert_butyl_1_4_benzoquinone conf 0 ff=MMFF E=13.947
C     -1.61510178     1.25959165     0.83633550
C     -1.14952399    -0.00213616     0.07882270
C     -1.76184371    -0.01707255    -1.33799924
C     -1.75826996    -1.21391116     0.83140398
C      0.39031723    -0.05359699     0.00512062
C      1.14178102    -1.03804112     0.53241559
C      2.61549727    -1.08270010     0.45919810
O      3.24882828    -2.00346039     0.95708426
C      3.29184986     0.01997312    -0.23386257
C      2.58534844     1.01495775    -0.77038441
C      1.10974666     1.06215662    -0.69853074
O      0.53207833     2.01012003    -1.21614561
H     -1.15952985     1.31242955     1.83214703
H     -2.70345045     1.25912387     0.97058190
H     -1.36666486     2.18429563     0.30735560
H     -1.41206962    -0.88465405    -1.90978408
H     -1.51647530     0.88088922    -1.91252490
H     -2.85624713    -0.07020647    -1.29345918
H     -1.51072172    -2.16117831     0.33810486
H     -2.85262753    -1.14848563     0.86684195
H     -1.40741228    -1.26233510     1.86894558
H      0.71869853    -1.88565792     1.05863064
H      4.37276736    -0.01971645    -0.28349448
H      3.06302520     1.83961494    -1.28680309
