23
SMD(acetonitrile)-opt r2scan/def2-svp q=1 m=2
C -3.59136017 -0.80241607 0.02722225
C -3.78122178 0.40654362 -0.67234345
C -2.69460143 1.21071617 -0.99424360
C -1.39797919 0.81946976 -0.62139722
C -1.20310974 -0.40083161 0.08454881
C -2.32121286 -1.20379603 0.40191043
N 0.04179887 -0.82018007 0.46635836
C 1.23982034 -0.19593835 0.25135030
C 2.42262161 -0.80592555 0.72483177
C 3.64758595 -0.19568348 0.52066840
C 3.72641960 1.03629986 -0.15982336
C 2.57483391 1.65304048 -0.63375901
C 1.32284013 1.04793825 -0.43512745
S -0.08082671 1.87723802 -1.05362435
H -4.45086608 -1.42969275 0.27701999
H -4.78692455 0.71778990 -0.96567748
H -2.84178626 2.14869261 -1.53710426
H -2.15606671 -2.13833260 0.94552494
H 0.08148123 -1.71073986 0.96942508
H 2.34288518 -1.76192528 1.25006255
H 4.55761412 -0.67495045 0.89048562
H 4.69677224 1.51339104 -0.31852477
H 2.63587398 2.60867556 -1.16220064
