23
phenothiazine_parent conf 0 ff=MMFF E=51.300
C     -3.63618230    -0.91805037     0.09965061
C     -3.82337951     0.28110045    -0.57882404
C     -2.72139635     1.07168776    -0.90497799
C     -1.42307981     0.67364666    -0.55012715
C     -1.23008055    -0.52653604     0.15459731
C     -2.34810812    -1.32141827     0.45670139
N      0.04937917    -0.99860057     0.49776093
C      1.26824098    -0.31954833     0.32201112
C      2.45136543    -0.92378328     0.77831186
C      3.69174438    -0.31092577     0.59071320
C      3.76817888     0.91005151    -0.07012231
C      2.60462621     1.51295944    -0.54805827
C      1.35365376     0.90370902    -0.36404175
S     -0.07611644     1.74567717    -1.02243248
H     -4.49016045    -1.54337127     0.34685484
H     -4.82342338     0.59963845    -0.86120340
H     -2.88133772     2.00296081    -1.44391049
H     -2.22205829    -2.26874947     0.97442281
H      0.06633850    -1.75024156     1.17396757
H      2.41474530    -1.88460048     1.28511577
H      4.59623711    -0.79052822     0.95580225
H      4.73100203     1.39119222    -0.22100738
H      2.67981118     2.46373014    -1.07120440
