28
SMD(acetonitrile)-opt r2scan/def2-svp q=1 m=1
C -4.24757346 0.08195356 -1.19282595
C -2.89037911 0.16808557 -0.55588221
C -2.30341151 1.41015430 -0.26349758
C -1.05208785 1.48990032 0.35488079
C -0.35663528 0.32382880 0.70293005
C 0.99925721 0.40315125 1.35497536
C -0.93573659 -0.92271907 0.41513942
C -2.18188210 -0.99721761 -0.20719337
N 2.07655038 -0.02747900 0.42027988
C 2.40648484 0.78733716 -0.60789377
C 3.37421351 0.40760541 -1.52233564
C 4.00427183 -0.83187641 -1.37509246
C 3.64659961 -1.65579306 -0.30665887
C 2.67380542 -1.22768398 0.58484652
H -4.32904348 -0.79644520 -1.85113232
H -5.03403705 -0.01781098 -0.42398927
H -4.47688517 0.98485192 -1.77826674
H -2.83430375 2.33097714 -0.52695912
H -0.61167532 2.46832420 0.57309016
H 1.23274900 1.43133143 1.66146986
H 1.07018452 -0.25493836 2.23039957
H -0.40377682 -1.84331745 0.67944177
H -2.61916544 -1.97714842 -0.42596530
H 1.86855989 1.73642729 -0.66238265
H 3.62685074 1.08524025 -2.34018951
H 4.76972128 -1.15056031 -2.08730451
H 4.11476515 -2.62982707 -0.15165001
H 2.35055723 -1.81770203 1.44451411
