28
methyl_viologen conf 0 ff=MMFF E=125.806
C     -4.99365058     0.36519584    -0.19475520
N     -3.52128841     0.26626967    -0.13951314
C     -2.83357346    -0.09922049    -1.24305185
C     -1.44264437    -0.20969037    -1.20783687
C     -0.73588393     0.05482335    -0.02851556
C      0.73591644    -0.05371855     0.02974783
C      1.52776873     0.99757412     0.50734207
C      2.91750551     0.87676327     0.55333760
N      3.52145444    -0.26058049     0.14591556
C      4.99365549    -0.36502128     0.19496556
C      2.79292379    -1.29485802    -0.32720822
C      1.40121788    -1.21104289    -0.39244921
C     -1.48630711     0.42435530     1.09427300
C     -2.87677492     0.52006588     1.02000809
H     -5.32750639     1.12435540     0.51717146
H     -5.39614113    -0.61720486     0.06385925
H     -5.29410986     0.65764206    -1.20413005
H     -3.40155732    -0.30046087    -2.14801645
H     -0.92031942    -0.49364237    -2.12083470
H      1.07586951     1.93273154     0.83647113
H      3.55130696     1.68463444     0.91069366
H      5.36745617     0.24330181     1.02251891
H      5.27213032    -1.40930300     0.35796188
H      5.37805992    -0.00250154    -0.76149398
H      3.32912416    -2.18380651    -0.65020018
H      0.84556461    -2.07012575    -0.76693766
H     -1.00119173     0.62836113     2.04826660
H     -3.47900530     0.79510318     1.88241045
