28
methyl_viologen conf 1 ff=MMFF E=125.806
C     -4.97519844    -0.56639349     0.05275493
N     -3.50974696    -0.39549687    -0.00997184
C     -2.75001457    -1.34429505    -0.59894116
C     -1.36269587    -1.20444220    -0.66122126
C     -0.73326666    -0.08349444    -0.10655987
C      0.73333574     0.08245407    -0.16058138
C      1.48319859     0.34033743     0.99331978
C      2.86886594     0.49174770     0.92162588
N      3.51004378     0.39059434    -0.26285050
C      4.97518957     0.56638112    -0.31885794
C      2.82099992     0.15267917    -1.39992217
C      1.43496687    -0.00860093    -1.36879042
C     -1.55538518     0.87150570     0.50366700
C     -2.93969191     0.69738464     0.54229374
H     -5.44998311     0.41802425     0.04001612
H     -5.20184116    -1.09795913     0.98015760
H     -5.30565645    -1.13958203    -0.81723395
H     -3.25759156    -2.21159081    -1.01394848
H     -0.78127214    -1.99368989    -1.13671927
H      1.00173502     0.41487456     1.96782344
H      3.46967763     0.69280466     1.80518011
H      5.16988239     1.62949833    -0.47970478
H      5.41187885     0.22708206     0.62390519
H      5.37543883    -0.03323073    -1.14038839
H      3.38368461     0.09621173    -2.32850555
H      0.91144068    -0.19110493    -2.30669929
H     -1.13201381     1.77200773     0.94737087
H     -3.59598057     1.42629300     1.01138682
