28
methyl_viologen conf 3 ff=MMFF E=125.806
C      5.00549752    -0.04465917     0.18388941
N      3.53077892    -0.03237566     0.10810123
C      2.84528866    -1.19047535     0.22307722
C      1.45091514    -1.19847155     0.16169818
C      0.73781050    -0.00597468    -0.01077777
C     -0.73758816     0.00763593    -0.07699503
C     -1.43705428    -0.81771053    -0.96573800
C     -2.83161119    -0.78854331    -1.01527309
N     -3.53002491     0.03796832    -0.20692256
C     -5.00552255     0.04445881    -0.26651991
C     -2.89237424     0.84206299     0.67122155
C     -1.49873654     0.84461315     0.74789098
C      1.48512042     1.17340271    -0.11523739
C      2.87906061     1.13966190    -0.05288598
H      5.37527454    -0.99603889    -0.20698499
H      5.40082893     0.77450794    -0.42217524
H      5.27879705     0.07902945     1.23460894
H      3.41768285    -2.10357476     0.36687864
H      0.93122708    -2.15030801     0.26643539
H     -0.90658868    -1.48704245    -1.64223125
H     -3.39403072    -1.42125279    -1.69749883
H     -5.36353263    -0.70640754     0.44202138
H     -5.36939132     1.03971436     0.00124836
H     -5.32263375    -0.19575431    -1.28455178
H     -3.50244682     1.47632914     1.30964189
H     -1.01906149     1.50036135     1.47379944
H      0.99418808     2.13529176    -0.25946322
H      3.47812697     2.04355120    -0.13144192
