28
methyl_viologen conf 5 ff=MMFF E=125.806
C      4.96928727     0.37088758    -0.52946449
N      3.50551933     0.26487046    -0.36566060
C      2.72166086     1.32707255    -0.65133152
C      1.33525191     1.24284515    -0.51390055
C      0.73244810     0.05630179    -0.07908453
C     -0.73233535    -0.05277199     0.07553121
C     -1.60477920     0.28947638    -0.96467401
C     -2.98625231     0.17829491    -0.79950587
N     -3.50512802    -0.25319948     0.37049144
C     -4.96929082    -0.37145893     0.52192094
C     -2.69655176    -0.59908428     1.39562399
C     -1.30981796    -0.50536932     1.26800427
C      1.57946316    -1.02297294     0.20027400
C      2.96132041    -0.90049578     0.04675203
H      5.27581853     1.40311227    -0.34189936
H      5.45784322    -0.28916858     0.19184935
H      5.20489757     0.07311269    -1.55407048
H      3.20969294     2.23850679    -0.98774879
H      0.73579904     2.12400764    -0.74027821
H     -1.22187429     0.63327719    -1.92500029
H     -3.68069658     0.42883579    -1.59765805
H     -5.23460014    -0.20318319     1.56879791
H     -5.24935166    -1.37887960     0.20461269
H     -5.45489071     0.38395653    -0.10110954
H     -3.16523249    -0.94831154     2.31238281
H     -0.68944136    -0.78001433     2.12049698
H      1.17538739    -1.98060007     0.52693765
H      3.63585292    -1.72904766     0.24818405
