28
methyl_viologen conf 2 ff=MMFF E=125.806
C     -5.00477584     0.09579608     0.30162316
N     -3.52960453     0.06233068     0.24297083
C     -2.91008718    -0.90458819    -0.46806849
C     -1.51698610    -0.94855619    -0.54185964
C     -0.73749163     0.01347978     0.11173537
C      0.73769667    -0.01424283     0.04523125
C      1.46250864    -1.16731925     0.36985100
C      2.85665117    -1.17296759     0.30329039
N      3.53029732    -0.06488516    -0.07444517
C      5.00475100    -0.09570219    -0.15012241
C      2.86685301     1.06412200    -0.40534570
C      1.47307574     1.11058001    -0.34758371
C     -1.41837207     1.00445218     0.82915480
C     -2.81308238     1.01220018     0.88224726
H     -5.35036804     0.70686861    -0.53572845
H     -5.31426179     0.52921310     1.25609407
H     -5.38845193    -0.92480866     0.22548552
H     -3.53409807    -1.63548617    -0.97646385
H     -1.05212082    -1.73814088    -1.13134832
H      0.95361223    -2.07529170     0.69179344
H      3.43846728    -2.05749055     0.55062765
H      5.38605121    -0.79398471     0.59931193
H      5.27253331    -0.41982700    -1.15869986
H      5.39388708     0.90479080     0.05534357
H      3.45626295     1.92269327    -0.71762716
H      0.97146922     2.03573788    -0.62957010
H     -0.87317157     1.77846920     1.36831450
H     -3.36124487     1.77255727     1.43310289
