28
methyl_viologen conf 4 ff=MMFF E=125.806
C      4.98797352     0.47731188    -0.09902878
N      3.51854997     0.33116886    -0.08776646
C      2.93852713    -0.65192387    -0.80986410
C      1.55085589    -0.80160058    -0.81818992
C      0.73518778     0.06962663    -0.08609874
C     -0.73508594    -0.07057210    -0.08247408
C     -1.57310661     1.00821259    -0.38949082
C     -2.96043808     0.85536236    -0.38189237
N     -3.51820218    -0.33438967    -0.06932106
C     -4.98798049    -0.47724755    -0.07500354
C     -2.74370385    -1.40071531     0.22636683
C     -1.35245242    -1.28884046     0.22573784
C      1.37481236     1.08121880     0.64045695
C      2.76577725     1.19577437     0.62645624
H      5.24268443     1.14491520    -0.92572795
H      5.44356864    -0.50667318    -0.23633270
H      5.31234300     0.89685191     0.85669723
H      3.58929366    -1.31086978    -1.37939232
H      1.11761646    -1.60082889    -1.41867135
H     -1.15848168     1.98029641    -0.65440529
H     -3.62871467     1.67709929    -0.62729740
H     -5.44096514     0.48079829     0.19257702
H     -5.27596833    -1.23251842     0.66071424
H     -5.28194179    -0.78080782    -1.08269041
H     -3.24307809    -2.33719319     0.46237134
H     -0.76009477    -2.16646186     0.48250626
H      0.80084738     1.78805017     1.23878403
H      3.28217658     1.97395593     1.18308365
