18
bm_1_2_naphthoquinone conf 0 ff=MMFF E=69.816
O     -3.80189778     0.28677246     0.10044178
C     -2.60974184     0.02639451     0.03124202
C     -2.15670298    -1.34600981    -0.27720663
C     -0.85636173    -1.64726793    -0.35660823
C      0.19032700    -0.64617794    -0.14500499
C      1.53811856    -1.01527164    -0.23988653
C      2.54769328    -0.06918597    -0.04006890
C      2.22206217     1.25347589     0.25612685
C      0.88484913     1.63431173     0.35346449
C     -0.12586903     0.68550948     0.15310977
C     -1.54274088     1.09180461     0.25690563
O     -1.85717576     2.24523345     0.51544982
H     -2.93471485    -2.08392515    -0.43319118
H     -0.55176697    -2.66519379    -0.58513511
H      1.82037014    -2.04081201    -0.46983301
H      3.59179549    -0.36552149    -0.11589507
H      3.00908971     1.98806424     0.41121852
H      0.63266635     2.66779934     0.58487076
