35
conf 4 ff=MMFF E=77.086 Rg=4.61 smiles=Cc1ccc(COC2=CC(=O)c3ccccc3C2=O)cc1
C     -6.52067931    -0.23853416     0.46834299
C     -5.05807791    -0.33884765     0.15189657
C     -4.29700345     0.81634516    -0.05815317
C     -2.92776012     0.72538920    -0.32045541
C     -2.29522354    -0.52346758    -0.37532110
C     -0.81261449    -0.62198707    -0.63909139
C     -3.05346006    -1.67704029    -0.13732656
C     -4.42252753    -1.58505845     0.12487432
O     -0.14588658    -0.57924096     0.62395964
C      1.17066727    -0.14202372     0.60544942
C      1.60616377     0.56173418     1.65467097
C      2.98097144     1.07169648     1.77048756
O      3.32044986     1.72304921     2.74961282
C      3.91708887     0.77540498     0.67449978
C      5.23470033     1.24694748     0.74429220
C      6.13037747     0.97049978    -0.28945301
C      5.71397526     0.22466347    -1.39133300
C      4.40107436    -0.24554287    -1.46126385
C      3.49752781     0.03071511    -0.42514668
C      2.11058819    -0.47431939    -0.51360548
O      1.76878749    -1.14373247    -1.48201971
H     -6.96746813     0.63286015    -0.02184289
H     -7.05906596    -1.12282548     0.11141276
H     -6.66439406    -0.14896781     1.54947682
H     -4.76565976     1.79695413    -0.01580476
H     -2.35635166     1.63746357    -0.47641883
H     -0.50589542     0.20866943    -1.28784474
H     -0.59686334    -1.56982944    -1.14475595
H     -2.57901328    -2.65600907    -0.14847291
H     -4.98917814    -2.49452501     0.31143926
H      0.94579037     0.79481536     2.48306708
H      5.56631533     1.82902050     1.60279912
H      7.15345427     1.33645496    -0.23420519
H      6.41209483     0.00766197    -2.19712894
H      4.08709585    -0.82839368    -2.32590969
