35
conf 9 ff=MMFF E=77.086 Rg=4.61 smiles=Cc1ccc(COC2=CC(=O)c3ccccc3C2=O)cc1
C      6.50444201    -0.42011415    -0.52139458
C      5.05728791    -0.32277116    -0.13972581
C      4.45632972    -1.32949056     0.62385630
C      3.10045072    -1.25628603     0.95216879
C      2.32095420    -0.17531291     0.52068115
C      0.85187400    -0.10670707     0.85907016
C      2.91783447     0.81761938    -0.26708007
C      4.27391331     0.74351726    -0.59489369
O      0.13945745    -0.79626551    -0.16982802
C     -1.18671913    -0.42895489    -0.34632660
C     -1.67801178    -0.45404749    -1.58882382
C     -3.06912420    -0.10418427    -1.91435481
O     -3.46059979    -0.13197508    -3.07373603
C     -3.95720618     0.28000109    -0.80574913
C     -5.28850679     0.62485277    -1.07415412
C     -6.13894360     0.98967897    -0.02966897
C     -5.66372420     1.01045559     1.28087816
C     -4.33716183     0.66676827     1.54884225
C     -3.47894183     0.30043885     0.50217223
C     -2.07682855    -0.06108501     0.80194724
O     -1.68295212    -0.05427788     1.96279986
H      7.07850954    -0.93974090     0.25298444
H      6.60690847    -0.96594489    -1.46431309
H      6.94526444     0.57545607    -0.63864393
H      5.03981183    -2.18114090     0.96630572
H      2.65278687    -2.05286205     1.54264986
H      0.54665466     0.94542613     0.92840851
H      0.67957917    -0.59399427     1.82525974
H      2.32843789     1.65387242    -0.63586132
H      4.71462730     1.52355890    -1.21160223
H     -1.05413603    -0.73698675    -2.42988460
H     -5.66596632     0.60944283    -2.09547549
H     -7.17268205     1.25669051    -0.23883622
H     -6.32653750     1.29360231     2.09590810
H     -3.97708208     0.68503221     2.57642004
