35
conf 5 ff=MMFF E=77.086 Rg=4.61 smiles=Cc1ccc(COC2=CC(=O)c3ccccc3C2=O)cc1
C      6.50150300     0.04582664    -0.80223107
C      5.05250344    -0.17858463    -0.48687876
C      4.12081094    -0.34994707    -1.51664178
C      2.76592106    -0.52619680    -1.22490256
C      2.31889287    -0.53216117     0.10283493
C      0.85304938    -0.70280327     0.41842363
C      3.24922894    -0.33273582     1.13094009
C      4.60379092    -0.15658533     0.83821327
O      0.26440516     0.59876403     0.45127972
C     -1.10031982     0.65849480     0.20884426
C     -1.56927427     1.72727823    -0.44198602
C     -2.99398843     1.92414105    -0.75021648
O     -3.36473690     2.91742917    -1.36186468
C     -3.94152138     0.89052090    -0.30401022
C     -5.30694717     1.03818713    -0.58173499
C     -6.21367327     0.06402981    -0.16202196
C     -5.76064970    -1.05581030     0.53405894
C     -4.40007836    -1.20333202     0.81114581
C     -3.48540984    -0.22729409     0.39044529
C     -2.04778639    -0.39762664     0.69162430
O     -1.67149234    -1.38021117     1.32066724
H      7.13987210    -0.33702868     0.00097219
H      6.78695320    -0.47775102    -1.72071485
H      6.69556738     1.11525717    -0.92943875
H      4.44410857    -0.34426398    -2.55513655
H      2.06003111    -0.65346528    -2.04235797
H      0.74688571    -1.18679955     1.39573319
H      0.39071665    -1.33769897    -0.34845825
H      2.92185270    -0.30693135     2.16812989
H      5.30644672     0.00149897     1.65326794
H     -0.90100794     2.51137856    -0.78149619
H     -5.66714768     1.91112605    -1.12399315
H     -7.27378707     0.17974325    -0.37750351
H     -6.46716422    -1.81514993     0.86271151
H     -4.05755506    -2.08129869     1.35682057
