35
conf 3 ff=MMFF E=77.086 Rg=4.61 smiles=Cc1ccc(COC2=CC(=O)c3ccccc3C2=O)cc1
C      6.50380552    -0.68477403     0.10877892
C      5.05934183    -0.33110587    -0.08577088
C      4.25956512     0.01272370     1.00965964
C      2.90592278     0.31033356     0.83363829
C      2.32793486     0.26726074    -0.44183586
C      0.86146776     0.56935858    -0.63057182
C      3.12377276    -0.10413154    -1.53316702
C      4.47720153    -0.40153631    -1.35614428
O      0.14713732    -0.66121370    -0.49988519
C     -1.18474501    -0.55781710    -0.12543538
C     -1.68754609    -1.52060262     0.65304650
C     -3.08557888    -1.54203435     1.10978981
O     -3.48774990    -2.44323135     1.83387078
C     -3.96735234    -0.44872937     0.67110047
C     -5.30497814    -0.42989159     1.08790491
C     -6.14950362     0.60203082     0.67656214
C     -5.66207800     1.61385146    -0.14953633
C     -4.32920631     1.59543206    -0.56523635
C     -3.47690310     0.56087206    -0.15350995
C     -2.06798120     0.55513806    -0.60227641
O     -1.66315213     1.44387400    -1.34323814
H      6.93214234    -0.12908095     0.94958902
H      6.60347448    -1.75667097     0.30531909
H      7.09110131    -0.43143706    -0.78011802
H      4.68546147     0.04819553     2.00985114
H      2.30354607     0.57099754     1.70076310
H      0.70394631     0.98968093    -1.63015660
H      0.54499639     1.30376963     0.12138337
H      2.69086752    -0.17030962    -2.52906827
H      5.07358437    -0.69224854    -2.21802693
H     -1.06854744    -2.34453417     0.99162117
H     -5.69195824    -1.21790187     1.73218649
H     -7.18815177     0.61559051     1.00011617
H     -6.32026235     2.41808394    -0.47167262
H     -3.95957522     2.39005791    -1.21165086
