35
conf 6 ff=MMFF E=77.086 Rg=4.61 smiles=Cc1ccc(COC2=CC(=O)c3ccccc3C2=O)cc1
C     -6.51088657    -0.51755337     0.34375244
C     -5.06603437    -0.15753157     0.16433980
C     -4.18713236    -0.18779047     1.25266178
C     -2.83429301     0.11548491     1.08017766
C     -2.33640023     0.45264835    -0.18520127
C     -0.87161078     0.76127125    -0.37640188
C     -3.21238873     0.45532984    -1.27833033
C     -4.56494521     0.15193325    -1.10484729
O     -0.20769708    -0.46734215    -0.67869896
C      1.14757213    -0.51759439    -0.38623535
C      1.65163548    -1.68548147     0.02334573
C      3.07209823    -1.88144916     0.35114111
O      3.47536700    -2.97149171     0.73503156
C      3.97501128    -0.72868451     0.20562581
C      5.33468756    -0.87254986     0.51206958
C      6.19929238     0.21435159     0.37643953
C      5.70994550     1.44314615    -0.06448108
C      4.35509644     1.58695079    -0.37008876
C      3.48263730     0.49761529    -0.23434245
C      2.05055149     0.66556579    -0.56207361
O      1.64304960     1.74901995    -0.96560275
H     -7.13822527     0.01175587    -0.38116709
H     -6.64748760    -1.59504792     0.21007661
H     -6.86218709    -0.23709288     1.34233015
H     -4.55021942    -0.45125941     2.24350948
H     -2.16971747     0.08136068     1.94034519
H     -0.75523046     1.46462941    -1.20850702
H     -0.47743645     1.22054340     0.53937516
H     -2.84345997     0.68809877    -2.27498306
H     -5.22460079     0.15571022    -1.96963992
H      1.01705717    -2.55782096     0.13732772
H      5.72319784    -1.83000306     0.85580131
H      7.25500736     0.10165454     0.61397898
H      6.38368524     2.29070451    -0.17166464
H      3.98406084     2.55091833    -0.71506415
