35
conf 0 ff=MMFF E=77.086 Rg=4.61 smiles=Cc1ccc(COC2=CC(=O)c3ccccc3C2=O)cc1
C      6.48572996    -0.47493353    -0.78249225
C      5.04973149    -0.18096572    -0.46485233
C      4.11040752    -0.04064890    -1.49237934
C      2.76647654     0.20051557    -1.19642188
C      2.33817627     0.30365636     0.13349494
C      0.88349932     0.54456217     0.45488523
C      3.27516256     0.13530180     1.16111884
C      4.61875571    -0.10581363     0.86417267
O      0.25116288    -0.73112734     0.57498535
C     -1.11799255    -0.75782544     0.35246491
C     -1.63210033    -1.84745473    -0.22563203
C     -3.06679724    -2.01287245    -0.50465002
O     -3.47964798    -3.02822660    -1.04944566
C     -3.97221490    -0.92129919    -0.11225302
C     -5.34556359    -1.03784817    -0.36455018
C     -6.21259778    -0.00864206     0.00460570
C     -5.71204245     1.13525029     0.62489347
C     -4.34355920     1.25178563     0.87661971
C     -3.46866536     0.22036500     0.50650200
C     -2.02207099     0.35843365     0.77997391
O     -1.60380248     1.36398262     1.34272392
H      6.77633441    -0.01898518    -1.73480105
H      7.14779948    -0.06616143    -0.01190839
H      6.64126852    -1.55629524    -0.84565300
H      4.41903923    -0.12141808    -2.53221113
H      2.05420625     0.30197417    -2.01195125
H      0.80737520     1.09107368     1.40155658
H      0.43268915     1.14696699    -0.34438422
H      2.96135931     0.18472375     2.20164337
H      5.32670541    -0.23804629     1.67924886
H     -0.99576305    -2.67381190    -0.52373883
H     -5.74280595    -1.92926711    -0.84764652
H     -7.27889638    -0.10018468    -0.19106908
H     -6.38759713     1.93758187     0.91413273
H     -3.96376181     2.14904812     1.36301801
