35
conf 8 ff=MMFF E=77.086 Rg=4.61 smiles=Cc1ccc(COC2=CC(=O)c3ccccc3C2=O)cc1
C      6.50527972    -0.66608212    -0.13711870
C      5.05644810    -0.29801826    -0.25884113
C      4.13321725    -1.21325797    -0.77634595
C      2.77817984    -0.88333373    -0.85955939
C      2.32251240     0.36799316    -0.42446134
C      0.85631352     0.71815269    -0.49560454
C      3.24413182     1.27224537     0.11889737
C      4.59884853     0.94142214     0.20168585
O      0.25514678     0.31040359     0.73483817
C     -1.10845175     0.05784300     0.69450682
C     -1.58321119    -0.91547176     1.47748586
C     -3.00766323    -1.27621985     1.54356556
O     -3.38376828    -2.18697622     2.26969040
C     -3.94827959    -0.51174635     0.70923214
C     -5.31318143    -0.82706937     0.73986706
C     -6.21338204    -0.10738739    -0.04688972
C     -5.75436750     0.92565853    -0.86293234
C     -4.39431681     1.24031423    -0.89370422
C     -3.48618478     0.51909279    -0.10542085
C     -2.04902686     0.86432799    -0.14873615
O     -1.66758776     1.78789823    -0.85886918
H      7.14198016     0.22094486    -0.22094629
H      6.68996344    -1.14438804     0.82965017
H      6.80174268    -1.35459781    -0.93541842
H      4.46326168    -2.19241134    -1.11598736
H      2.07892118    -1.61272287    -1.26172925
H      0.40506963     0.20751977    -1.35617659
H      0.74833012     1.80090001    -0.62464703
H      2.90971400     2.23958093     0.48772060
H      5.29459367     1.65818595     0.63205151
H     -0.92018196    -1.49651331     2.10950111
H     -5.67805293    -1.63204270     1.37602838
H     -7.27309889    -0.35242715    -0.02205258
H     -6.45580569     1.48804639    -1.47569104
H     -4.04709381     2.05013661    -1.53365224
