35
conf 1 ff=MMFF E=77.086 Rg=4.61 smiles=Cc1ccc(COC2=CC(=O)c3ccccc3C2=O)cc1
C      6.52348623     0.59370352     0.14634164
C      5.06521883     0.25127536     0.22119852
C      4.56569376    -0.87211650    -0.44675817
C      3.20228310    -1.17363713    -0.40490191
C      2.31377475    -0.35537041     0.30452665
C      0.83824339    -0.67065313     0.33308661
C      2.81150193     0.78431505     0.94961884
C      4.17520181     1.08501997     0.90717652
O      0.23869344    -0.03221104    -0.79588972
C     -1.11609998     0.24784447    -0.69140137
C     -1.56790571     1.35876300    -1.28091626
C     -2.98117189     1.76600588    -1.26089235
O     -3.33577151     2.80242523    -1.80704904
C     -3.93715158     0.89164504    -0.56311751
C     -5.29197216     1.24615800    -0.51722205
C     -6.20661371     0.42322142     0.14118217
C     -5.77207035    -0.75189598     0.75279573
C     -4.42207804    -1.10564285     0.70721657
C     -3.49947657    -0.28114629     0.04746889
C     -2.07324228    -0.66941682     0.00764496
O     -1.71384708    -1.71571146     0.53572548
H      7.13344150    -0.31178884     0.06108891
H      6.84814612     1.11938634     1.05048779
H      6.71395480     1.23194687    -0.72192649
H      5.23521481    -1.51979340    -1.00826162
H      2.83504810    -2.04936599    -0.93579107
H      0.69831542    -1.75548134     0.26810819
H      0.41069430    -0.30970381     1.27747463
H      2.13860121     1.44954961     1.48569586
H      4.53816537     1.97771697     1.41153227
H     -0.89315670     2.02441611    -1.80843333
H     -5.63777346     2.16209213    -0.99397862
H     -7.25850628     0.69887360     0.17582219
H     -6.48481168    -1.39466081     1.26526208
H     -4.09402989    -2.02652265     1.18708501
