35
conf 2 ff=MMFF E=77.086 Rg=4.61 smiles=Cc1ccc(COC2=CC(=O)c3ccccc3C2=O)cc1
C     -6.52064990    -0.27405074     0.42795298
C     -5.03457471    -0.15092275     0.58864206
C     -4.19396688    -1.21753310     0.25167090
C     -2.80750896    -1.09234744     0.36984896
C     -2.23733603     0.10344393     0.82563933
C     -0.73901734     0.24656495     0.93504547
C     -3.07910119     1.17925613     1.13605112
C     -4.46531946     1.05310521     1.01754945
O     -0.26076778     0.74531788    -0.31562615
C      1.06491216     0.46873261    -0.61709886
C      1.37884196     0.25464441    -1.89827404
C      2.74631065    -0.03307833    -2.35741805
O      2.97286404    -0.23466227    -3.54326283
C      3.81506110    -0.07308549    -1.34674371
C      5.13073404    -0.34834100    -1.74242405
C      6.15151385    -0.38757311    -0.79176093
C      5.86195730    -0.15235196     0.55160272
C      4.55102788     0.12209994     0.94635982
C      3.52211723     0.16158783    -0.00550244
C      2.13895272     0.45375147     0.42806580
O      1.90765246     0.67579587     1.61126511
H     -6.81457934     0.03144249    -0.58090863
H     -7.04553956     0.35407335     1.15540027
H     -6.84739767    -1.30582495     0.59500552
H     -4.61387775    -2.15390384    -0.10875938
H     -2.17438664    -1.93379209     0.09811566
H     -0.30025652    -0.73021695     1.17657593
H     -0.50033070     0.95444813     1.73665974
H     -2.65789850     2.12632615     1.46658201
H     -5.09803597     1.90402831     1.25967497
H      0.61811802     0.28123434    -2.67109408
H      5.36348442    -0.53177256    -2.79027518
H      7.17292309    -0.60073962    -1.09989267
H      6.65751842    -0.18154189     1.29322191
H      4.33655554     0.30575847     1.99811126
