35
conf 7 ff=MMFF E=77.086 Rg=4.61 smiles=Cc1ccc(COC2=CC(=O)c3ccccc3C2=O)cc1
C     -6.53409736     0.10340851    -0.25377952
C     -5.07095015    -0.02569337     0.04942848
C     -4.51136586    -1.27883951     0.32179731
C     -3.14274853    -1.40478855     0.57195384
C     -2.30900391    -0.27927875     0.55217621
C     -0.82745501    -0.41875123     0.80311657
C     -2.86630337     0.97053978     0.25196957
C     -4.23516118     1.09547776     0.00192897
O     -0.19972993    -0.68025597    -0.45355859
C      1.14077521    -0.33603187    -0.55035617
C      1.58455567     0.10701743    -1.73042532
C      2.98332027     0.49085163    -1.97475788
O      3.33036493     0.90341044    -3.07364186
C      3.93406554     0.36519904    -0.85869989
C      5.27489700     0.72476291    -1.04898925
C      6.18452320     0.60836253     0.00282768
C      5.75891824     0.13378516     1.24276286
C      4.42287281    -0.22475782     1.43282426
C      3.50530656    -0.10850455     0.37887324
C      2.09387750    -0.49238612     0.59563872
O      1.74309691    -0.92467691     1.68781228
H     -6.91164166     1.08426139     0.05381925
H     -6.70629605    -0.02150175    -1.32721670
H     -7.11338868    -0.65152075     0.28819288
H     -5.13758440    -2.16800826     0.33786223
H     -2.72823571    -2.38964384     0.77651183
H     -0.65351723    -1.25461615     1.48994327
H     -0.45064011     0.50544679     1.26008439
H     -2.23615121     1.85566391     0.20534534
H     -4.64478420     2.07515118    -0.23359827
H      0.91356262     0.20783231    -2.57674805
H      5.61372583     1.09499293    -2.01539294
H      7.22558262     0.88716235    -0.14592186
H      6.46782071     0.04157519     2.06296052
H      4.10178892    -0.59564584     2.40506668
