29
SMD(acetonitrile)-opt r2scan/def2-svp q=1 m=1
C -4.37691491 0.22377017 0.67784965
C -2.98858925 -0.17889214 0.27168391
C -2.11922744 -0.79271437 1.19325378
C -0.82010310 -1.14853435 0.83131276
C -0.35164120 -0.89891205 -0.46889269
C 1.05916970 -1.26045612 -0.85447442
C -1.20977316 -0.28981340 -1.39484546
C -2.51204635 0.06108140 -1.02763850
N 2.03282296 -0.27288656 -0.30287392
C 2.13813775 0.93577740 -0.89856926
C 2.99229148 1.90046584 -0.39671379
C 3.74825209 1.60130840 0.74988879
C 4.64434254 2.57458078 1.29555720
N 5.37443926 3.36466066 1.73895547
C 3.62299521 0.34066933 1.35404100
C 2.75085304 -0.58053604 0.79763941
H -5.03081547 0.35844136 -0.19632547
H -4.83221853 -0.52170121 1.34807236
H -4.36009293 1.18071934 1.22858065
H -2.47271648 -1.00003887 2.20881335
H -0.16353858 -1.63143589 1.56311792
H 1.19077776 -1.25522431 -1.94418930
H 1.35535078 -2.24003065 -0.45926669
H -0.86006014 -0.09951141 -2.41478445
H -3.17348379 0.52668729 -1.76562141
H 1.51701301 1.09937230 -1.78180407
H 3.06751194 2.86835166 -0.89448633
H 4.19570856 0.07271704 2.24308755
H 2.60914280 -1.57927580 1.21392293
