15
SMD(acetonitrile)-opt r2scan/def2-svp q=1 m=1
C 2.13174080 0.06471490 0.04028628
N 0.66216682 0.01730195 0.03731865
C -0.03900925 1.17043737 0.12522600
C -1.42409697 1.15814352 0.08174917
C -2.09217948 -0.06097405 -0.05393016
C -1.34805621 -1.23956699 -0.14448312
C 0.03539485 -1.17363826 -0.09669158
H 2.45903907 0.92185267 0.63880084
H 2.48510619 0.17429858 -0.99494288
H 2.51716274 -0.86685173 0.46904351
H 0.54739327 2.08515278 0.23142710
H -1.96463024 2.10367623 0.15791863
H -3.18426941 -0.09246984 -0.08700742
H -1.82789577 -2.21468926 -0.24903740
H 0.67863142 -2.05349320 -0.16018988
