24
anthraquinone_parent conf 0 ff=MMFF E=63.789
O     -0.12767200     2.54543966     0.79783709
C     -0.06907930     1.37728774     0.43169059
C      1.23772430     0.73503633     0.18597417
C      2.41644524     1.46865060     0.37356273
C      3.65631716     0.86987687     0.14373110
C      3.72298962    -0.45929121    -0.27288808
C      2.54991362    -1.19232244    -0.46048616
C      1.30436547    -0.59359204    -0.23046664
C      0.06907743    -1.37728311    -0.43168857
O      0.12766406    -2.54543550    -0.79783294
C     -1.23772761    -0.73503817    -0.18596896
C     -2.41645144    -1.46865563    -0.37355618
C     -3.65632310    -0.86988060    -0.14373186
C     -3.72298295     0.45929027     0.27288258
C     -2.54990631     1.19231920     0.46048725
C     -1.30436275     0.59358958     0.23047277
H      2.37260834     2.50681742     0.69867328
H      4.57037160     1.44131539     0.28999318
H      4.68912742    -0.92610392    -0.45204716
H      2.61016715    -2.22957799    -0.78588099
H     -2.37261996    -2.50681753    -0.69868557
H     -4.57037974    -1.44131890    -0.28999421
H     -4.68911059     0.92611702     0.45204987
H     -2.61015567     2.22957698     0.78587270
