41
SMD(acetonitrile)-opt r2scan/def2-svp q=0 m=1
C 5.57730347 0.89740046 -2.12428455
C 4.79640735 0.43834087 -0.92516077
C 4.39884365 1.34695920 0.07164121
C 3.64654643 0.92801457 1.17211559
C 3.26816713 -0.41690705 1.31475234
C 2.37762025 -0.85415130 2.45658957
C 3.66877447 -1.32933951 0.32546540
C 4.42110665 -0.90820164 -0.77440924
N 0.95793558 -0.76103595 2.12150485
C 0.34817756 -1.76968122 1.38677763
C -0.85783270 -1.60391235 0.78009266
C -1.59117219 -0.34453373 0.83069123
C -2.82724166 -0.14461015 0.21060195
C -3.56276743 1.11304084 0.26364094
C -4.77134494 1.27622871 -0.34107937
N -5.39841835 0.25525520 -1.03642063
C -6.58831608 0.51492774 -1.82049062
C -4.72837506 -0.95244350 -1.14429545
C -3.51880783 -1.17119209 -0.55952372
C -0.90096501 0.68193571 1.60275863
C 0.30610094 0.46357517 2.19026702
H 6.19141662 0.08518353 -2.54205595
H 4.90065135 1.23907510 -2.92767924
H 6.23626011 1.74406765 -1.87758924
H 4.69049055 2.39949035 -0.01491531
H 3.35647200 1.65452653 1.93922052
H 2.58848626 -1.89974567 2.72971638
H 2.55391744 -0.22505478 3.34286990
H 3.39650921 -2.38606999 0.42348702
H 4.73045459 -1.63896179 -1.52975532
H 0.89597992 -2.71523260 1.35022864
H -1.27183451 -2.46903524 0.25685909
H -3.15934822 1.97306336 0.80295997
H -5.32099887 2.22051322 -0.30269817
H -6.34466588 0.88643937 -2.83355001
H -7.20887090 1.26755443 -1.31343698
H -7.17460554 -0.40968905 -1.92025381
H -5.24477460 -1.72244217 -1.72368487
H -3.07957136 -2.16305307 -0.68764118
H -1.34988294 1.66767285 1.74526688
H 0.82167661 1.23357855 2.77057197
