44
anthraquinone/neu q=0 m=1 E=-30286.134743eV model=uma-s-1p1
C        7.11048731      -1.81194670      -0.04762215       0.00567348      -0.00918908      -0.00160799
C        5.99246142      -0.80990543      -0.14430922       0.00490890      -0.00501123      -0.00194839
C        5.97789290       0.32427399       0.65781927      -0.00390902      -0.00878730       0.00126216
C        4.96812625       1.26970038       0.53744957       0.00165087      -0.00113569       0.00083991
C        3.95271101       1.10820490      -0.39386042      -0.00133757       0.01612497       0.00127293
C        2.88294746       2.15834737      -0.57406988      -0.00847468       0.00667594       0.00059091
C        3.95298078      -0.03410612      -1.18937620      -0.00513538       0.01047057       0.00867754
C        4.95742147      -0.97934471      -1.06252233      -0.00861368       0.00493013       0.00756955
O        1.57228493       1.62055315      -0.62137422       0.00586163      -0.00942531      -0.00793588
C        1.12349526       1.18892828       0.65234498       0.00983951       0.00861283      -0.00649339
C       -0.18091809       0.46788726       0.46961741       0.00339888       0.01299575       0.00052419
C       -0.18134366      -0.85885302       0.04123193       0.00620728       0.00941731      -0.01283202
C       -1.36870537      -1.53336068      -0.16522550       0.00093984      -0.00419581      -0.00346253
C       -2.58094376      -0.88767830       0.05463101      -0.00337863      -0.00108977       0.00124603
C       -3.84845063      -1.63913741      -0.16778939      -0.01065011       0.00955578       0.00076679
O       -3.84023533      -2.79892587      -0.52083937       0.00771087       0.00635546      -0.00144929
C       -5.12988077      -0.90994799       0.05892916      -0.01007989       0.00073151      -0.00003096
C       -6.32909156      -1.57993466      -0.15609893      -0.00241284      -0.00025643       0.00106010
C       -7.53160652      -0.92514788       0.04397470      -0.00161191       0.00017724      -0.00409360
C       -7.54361786       0.40171134       0.46148182       0.00288925       0.00328801      -0.00106962
C       -6.35318676       1.07312280       0.67958003       0.00424247      -0.00109823      -0.00265804
C       -5.14141576       0.42088557       0.47841143      -0.00245686      -0.00395532      -0.00091075
C       -3.87132410       1.16597155       0.72017424      -0.00085250      -0.00938379       0.00454652
O       -3.88135828       2.31737387       1.09929451       0.00627675      -0.00380972      -0.00455649
C       -2.59072059       0.44040073       0.47873401      -0.00199940      -0.00488983       0.00440216
C       -1.38910533       1.11015360       0.68303167       0.00095659       0.00517208      -0.00625203
H        7.52915076      -1.84661249       0.95789433      -0.01360031       0.00486206       0.00722149
H        7.92135691      -1.55026903      -0.73082543       0.00031163      -0.00389218      -0.00711587
H        6.76941578      -2.81276345      -0.31100792      -0.00325823      -0.00483529       0.00198134
H        6.76330086       0.46862380       1.39058817       0.00184175       0.00346329       0.00252729
H        4.97276131       2.14411581       1.17856958       0.00062912       0.00823541      -0.00385161
H        3.02023562       2.67336071      -1.52609290      -0.01788259      -0.00501639       0.00200920
H        2.95827819       2.90651019       0.22490002       0.00882128       0.00983240      -0.00338163
H        3.15403077      -0.17554943      -1.90794734       0.01397258      -0.01099899      -0.00726820
H        4.94579374      -1.86389008      -1.68958024      -0.00979845       0.01040961       0.00073303
H        1.86454276       0.52047820       1.10659876      -0.00919316      -0.00970048       0.00094388
H        0.99622440       2.05467557       1.31387231      -0.00431247      -0.00151481       0.00563740
H        0.76548430      -1.35580413      -0.13359969       0.00821153      -0.01391240       0.00619732
H       -1.38384252      -2.56246593      -0.49575261       0.00205314      -0.01664807      -0.00014743
H       -6.29365420      -2.61132322      -0.47977200      -0.00166359       0.00569210      -0.00031588
H       -8.46499985      -1.44578764      -0.12609073       0.00403564      -0.00263665       0.00253651
H       -8.48662106       0.91007799       0.61507858       0.00660130       0.00277769       0.00451465
H       -6.33835492       2.10448487       1.00506852       0.00595053      -0.00636809      -0.00163750
H       -1.42200719       2.14291234       1.00616830       0.00763643      -0.00202907       0.01195818
