20
SMD(acetonitrile)-opt r2scan/def2-svpd q=-2 m=1
C -3.93292648 1.97441135 0.10469678
C -5.15190291 1.35894289 -0.17310050
C -2.75790661 1.22366377 0.33297073
C -2.88051814 -0.18238146 0.26511887
C -4.09946829 -0.79787667 -0.01238874
C -5.27456354 -0.04707119 -0.24061418
H -4.14084141 -1.89010272 -0.05337574
H -3.89155378 3.06664678 0.14559286
H -6.03218264 1.98577458 -0.34213742
H -2.00015081 -0.80915455 0.43394557
C -1.47101142 1.87323384 0.62750905
C -6.56148999 -0.69687247 -0.53437949
C -1.35991778 3.26714183 0.69021014
C -0.31439669 1.11932583 0.85822030
C -6.67078858 -2.09067503 -0.60325982
C -7.71977116 0.05679231 -0.75761965
N -1.29938996 4.44248782 0.73642387
N 0.64097413 0.45751386 1.04920964
N -6.72932644 -3.26591244 -0.65427397
N -8.67584570 0.71971825 -0.94111846
