28
methyl_viologen/ox2 q=2 m=1 E=-15636.174147eV conf=5 model=uma-s-1p2p1
C        4.93783840       0.36652017      -0.53308184      -0.00168158       0.00118895      -0.00546886
N        3.46723384       0.26235657      -0.35940842      -0.00012494       0.00327024       0.01250855
C        2.68861351       1.31788036      -0.64558391       0.00148400       0.00884678      -0.00383553
C        1.31957276       1.23982001      -0.52325997      -0.00306641      -0.00649446      -0.00096697
C        0.73800890       0.05316207      -0.08485470      -0.00745212      -0.00171126       0.00271450
C       -0.73819739      -0.05823059       0.07238155      -0.00360927       0.00525112       0.00038371
C       -1.59191159       0.29709123      -0.96797851       0.00323613       0.00663720      -0.00377880
C       -2.95301637       0.18603002      -0.79491848       0.00182234      -0.00632277      -0.00630347
N       -3.46675525      -0.24815058       0.36685265      -0.00827811      -0.00124414      -0.00040451
C       -4.93814263      -0.37599936       0.51640469      -0.00058496      -0.00032121      -0.00072920
C       -2.66363548      -0.59415019       1.38548581      -0.00252487      -0.00080567       0.00445461
C       -1.29458461      -0.51513911       1.26414156      -0.00113265       0.00261913       0.00350956
C        1.56675252      -1.02608572       0.20821631      -0.01595831      -0.00643821      -0.00730184
C        2.92852471      -0.89506456       0.05577340      -0.00134190      -0.00837711       0.00742421
H        5.23953133       1.39295155      -0.34852961      -0.00284698       0.00057482       0.00331227
H        5.42201937      -0.29074752       0.18263807       0.00212190       0.00913989      -0.00661950
H        5.19354823       0.07377852      -1.54917936       0.00264085      -0.00525871      -0.00496177
H        3.19362472       2.21781855      -0.96599020       0.00679457       0.00225957      -0.00982209
H        0.72632447       2.11575517      -0.74667082       0.00304123      -0.00247346       0.01082205
H       -1.21434131       0.64325513      -1.92017565       0.01053901       0.00385349       0.00067853
H       -3.66055569       0.43964219      -1.57117762       0.01400671      -0.00615537       0.00829344
H       -5.19908900      -0.21071718       1.55719844       0.01073406      -0.00221493      -0.00305821
H       -5.23783316      -1.37437587       0.20500686       0.00169121       0.00301863       0.00472914
H       -5.41931066       0.37364686      -0.10421737       0.00399265      -0.00440007       0.00028695
H       -3.14909012      -0.92646181       2.29185707      -0.00143256      -0.00226867      -0.00830903
H       -0.68045902      -0.78644728       2.11170790      -0.01287328       0.00003241       0.00619971
H        1.16833987      -1.97584073       0.53731862       0.00031941       0.00919611       0.00123016
H        3.61698956      -1.70229787       0.26051661       0.00048391      -0.00140237      -0.00498768
