23
phenothiazine_parent/neu q=0 m=1 E=-24915.786692eV conf=0 model=uma-s-1p2p1
C       -3.60623195      -0.90418187       0.10513093       0.00284792      -0.00519885      -0.00049669
C       -3.79004695       0.28498191      -0.58114310      -0.00204085       0.00529118      -0.00484363
C       -2.68548461       1.06175033      -0.89636216       0.01042222      -0.00950627      -0.01195943
C       -1.40447543       0.66779253      -0.53953140       0.00030140      -0.00109849       0.01292004
C       -1.21621679      -0.52897577       0.15302218       0.00618902      -0.00558220      -0.00289588
C       -2.33028477      -1.30296393       0.46818625       0.00218317      -0.00220453       0.00070224
N        0.04519937      -0.97416001       0.52986646       0.00157866       0.00730711       0.00224044
C        1.25544443      -0.32493114       0.31730629      -0.00725284      -0.00519651      -0.00099765
C        2.42961610      -0.90977229       0.78507526      -0.00264922      -0.00628449       0.00158984
C        3.65951268      -0.30250661       0.59147671       0.00087904      -0.00400339       0.00311008
C        3.73516943       0.90897700      -0.07588339      -0.00313052       0.00515786      -0.00846803
C        2.56996666       1.49739214      -0.54379780      -0.00473409      -0.01081397      -0.00774878
C        1.33512967       0.89430618      -0.35678197      -0.00018894      -0.00058278       0.00935990
S       -0.07568042       1.73295959      -1.01343007      -0.00092293       0.00862518       0.00229978
H       -4.45383044      -1.52798208       0.35683349      -0.00656772      -0.00397642       0.00810555
H       -4.77988519       0.60913781      -0.87058474      -0.01468616       0.00728302      -0.00245286
H       -2.81387973       1.99231953      -1.43682685      -0.00137586       0.00822010       0.00610221
H       -2.18453024      -2.23352994       1.00525511       0.00449808      -0.00564125      -0.00338870
H        0.08258499      -1.83822759       1.04080947      -0.00051077       0.00845594      -0.00802658
H        2.36865409      -1.85850036       1.30643228      -0.00438862      -0.00286964      -0.00131381
H        4.55692757      -0.78172408       0.96016014       0.00454136       0.00336519       0.01811158
H        4.68782487       1.39503787      -0.23344943       0.01445812       0.00552521      -0.00905901
H        2.61451683       2.44280082      -1.07176372       0.00054923       0.00372792      -0.00289078
