46
conf 7 ff=MMFF E=60.610 Rg=4.33 smiles=Cc1ccc(COC2CC(C)(C)N([O])C(C)(C)C2)cc1
C      7.06960127     0.67596147    -0.72725190
C      5.57405837     0.75459976    -0.79145219
C      4.82059309     0.89144256     0.37922145
C      3.42502235     0.93022736     0.32316663
C      2.75326938     0.81160700    -0.90057128
C      1.24621106     0.89593794    -0.97764746
C      3.51167770     0.67280081    -2.07094493
C      4.90794260     0.63442761    -2.01597901
O      0.65617359     0.27206762     0.16151591
C     -0.78217553     0.33776568     0.13988504
C     -1.36941657    -0.80983899    -0.67102788
C     -2.91285235    -0.68447181    -0.77051007
C     -3.46924448    -2.09685006    -1.09140773
C     -3.23291607     0.22511275    -1.98857813
N     -3.45250187    -0.00365936     0.43440103
O     -4.86316709    -0.23504744     0.55363998
C     -2.76165296    -0.20428028     1.72914281
C     -3.38001631     0.69582253     2.83799418
C     -2.78720455    -1.65958421     2.25882578
C     -1.27660529     0.25626933     1.58620069
H      7.45644638     1.26619682     0.11014164
H      7.38475738    -0.36451215    -0.60222214
H      7.52153833     1.07531589    -1.64131712
H      5.31101215     0.96836991     1.34638818
H      2.85384826     1.04217426     1.24331821
H      0.96058860     1.95389603    -1.01262028
H      0.89650673     0.40027873    -1.88910775
H      3.01632673     0.58682427    -3.03534258
H      5.47071181     0.51050240    -2.93782496
H     -1.08724156     1.30603896    -0.27781985
H     -1.07314037    -1.75715431    -0.20174873
H     -0.92155711    -0.84708296    -1.67114950
H     -3.34252438    -2.79193088    -0.25696949
H     -2.94550741    -2.52934241    -1.95286987
H     -4.53354744    -2.07476852    -1.35147628
H     -4.31188419     0.30924430    -2.16310891
H     -2.83928728     1.23891937    -1.85268780
H     -2.79045802    -0.17693758    -2.90781551
H     -2.77046338     0.66687100     3.74958556
H     -3.43595463     1.74243021     2.51496102
H     -4.38875807     0.37439605     3.12090071
H     -2.33137941    -1.71592264     3.25511335
H     -3.80851762    -2.04323767     2.35663591
H     -2.22648419    -2.34765209     1.62182385
H     -0.61623931    -0.40505802     2.16401268
H     -1.12558829     1.25183076     2.02645535
