46
conf 9 ff=MMFF E=60.991 Rg=3.98 smiles=Cc1ccc(COC2CC(C)(C)N([O])C(C)(C)C2)cc1
C      5.77369334    -1.11111568    -1.96395934
C      4.70503090    -0.30348609    -1.29099004
C      3.86140406     0.52257336    -2.04237668
C      2.83651074     1.24257736    -1.42275390
C      2.62945567     1.13931953    -0.04198407
C      1.53077383     1.92301109     0.63400188
C      3.46576747     0.30035354     0.70585135
C      4.49054359    -0.41889460     0.08677995
O      0.68847419     1.07258719     1.40950312
C     -0.38413523     0.48389605     0.64565373
C     -1.52158453     1.49609185     0.46139716
C     -2.94109474     0.86580715     0.31909607
C     -3.69198827     0.97798710     1.66899263
C     -3.70193104     1.76896806    -0.69640319
N     -2.78811370    -0.51093054    -0.19704359
O     -4.05671789    -1.07559847    -0.55794967
C     -1.99101528    -1.47948404     0.60216123
C     -1.30910537    -2.44294510    -0.40647430
C     -2.76713881    -2.35355284     1.62344256
C     -0.87264165    -0.74736676     1.39059047
H      6.16127604    -0.58900243    -2.84510646
H      6.61942105    -1.27958181    -1.28897198
H      5.37096834    -2.07986246    -2.27523573
H      3.98756864     0.60367151    -3.11927868
H      2.18675270     1.86984777    -2.02896026
H      1.99987420     2.63452798     1.32341019
H      0.95108758     2.51667286    -0.08120002
H      3.30139743     0.19216531     1.77613747
H      5.11135499    -1.07795897     0.68825686
H      0.00324198     0.17498804    -0.33328188
H     -1.27714638     2.08450700    -0.43367281
H     -1.51129047     2.22071485     1.28687082
H     -3.82744716     2.03003463     1.94889053
H     -4.69193784     0.53338714     1.61786675
H     -3.15617466     0.50505500     2.49438953
H     -3.66040499     2.82140148    -0.38968961
H     -4.76202202     1.50296445    -0.77688434
H     -3.25959493     1.70283427    -1.69786733
H     -2.04286317    -3.04755929    -0.95222413
H     -0.71196902    -1.89940211    -1.14750881
H     -0.63718665    -3.14067044     0.10733820
H     -3.46270321    -3.04520905     1.13484757
H     -2.07281903    -2.96959107     2.20815149
H     -3.33789330    -1.74915060     2.33433125
H     -0.02437396    -1.41859911     1.58181590
H     -1.21330346    -0.44598312     2.38921913
