46
conf 2 ff=MMFF E=55.942 Rg=3.90 smiles=Cc1ccc(COC2CC(C)(C)N([O])C(C)(C)C2)cc1
C      5.56809660    -0.83593499     2.32322682
C      4.57366349    -0.62533578     1.22137089
C      4.02216535    -1.71867247     0.54409485
C      3.06364559    -1.52524312    -0.45438903
C      2.62650681    -0.23554282    -0.78177415
C      1.60699126    -0.02782848    -1.87736520
C      3.17706425     0.85649917    -0.09841511
C      4.13453510     0.66346333     0.89996173
O      0.65210987     0.97451965    -1.53286321
C     -0.44090582     0.47481465    -0.73695970
C     -1.03639541     1.65234500     0.02258167
C     -2.25629812     1.24642651     0.88779745
C     -2.90787109     2.58207288     1.34794702
C     -1.74671764     0.52492211     2.16185972
N     -3.22787887     0.49858930     0.05079743
O     -4.33560929     0.05104687     0.85080909
C     -2.76101468    -0.59395890    -0.83624044
C     -2.41806237    -1.94086734    -0.14926457
C     -3.85877812    -0.88791703    -1.89899662
C     -1.52291388    -0.11412818    -1.63531817
H      5.04851129    -0.95349807     3.27913268
H      6.17389080    -1.72906386     2.13729261
H      6.25609208     0.01294039     2.39615483
H      4.32969385    -2.73124325     0.79358171
H      2.64870599    -2.39074554    -0.96565953
H      1.11024717    -0.96595563    -2.14737118
H      2.13961699     0.32242366    -2.76873989
H      2.84144812     1.86502195    -0.33388566
H      4.52725476     1.52845677     1.42859904
H     -0.05805028    -0.26848285    -0.03025694
H     -0.25631420     2.11724650     0.64086209
H     -1.32230119     2.43041270    -0.70069034
H     -3.72438665     2.42095998     2.06088975
H     -3.31150197     3.14286955     0.49616995
H     -2.17198545     3.22706278     1.84331640
H     -1.06467313     1.17597545     2.72299865
H     -1.19156550    -0.38794851     1.94451652
H     -2.56231050     0.26705941     2.84612583
H     -1.58743659    -1.86428848     0.55291686
H     -2.12285498    -2.68735618    -0.89730556
H     -3.27469143    -2.36222270     0.38784511
H     -4.75337322    -1.34069560    -1.45668843
H     -4.16706527     0.02815690    -2.41737104
H     -3.49017310    -1.58506737    -2.66125632
H     -1.11350269    -0.93798920    -2.23302395
H     -1.81560792     0.64670086    -2.37400398
