46
conf 0 ff=MMFF E=55.625 Rg=4.33 smiles=Cc1ccc(COC2CC(C)(C)N([O])C(C)(C)C2)cc1
C      7.13688654     0.23221859     0.35717693
C      5.67350833    -0.06631508     0.22905600
C      4.76838476     0.95039618    -0.09326962
C      3.40009221     0.68042559    -0.17874706
C      2.90590990    -0.60526968     0.07724962
C      1.43370441    -0.92222330    -0.05597157
C      3.81599522    -1.62079661     0.40153474
C      5.18508311    -1.35181137     0.48668499
O      0.64510053     0.19897297     0.33573201
C     -0.72891856     0.10267120    -0.08649884
C     -1.37338510     1.46212614     0.15110764
C     -2.86786279     1.49503214    -0.25540513
C     -2.96298169     1.58713631    -1.80006778
C     -3.43030799     2.82737720     0.31808715
N     -3.57675850     0.35774196     0.38123424
O     -4.95087061     0.32795094    -0.04064587
C     -2.99628991    -1.00498499     0.33323870
C     -3.13303152    -1.76401895    -1.01209738
C     -3.67259824    -1.88276219     1.42554771
C     -1.49542629    -0.94239421     0.71691874
H      7.73873832    -0.64660003     0.10282136
H      7.43294417     1.03620720    -0.32488420
H      7.36881784     0.53496500     1.38289260
H      5.11786686     1.96283302    -0.27978792
H      2.71076713     1.48322483    -0.43517958
H      1.23476781    -1.19003124    -1.10033276
H      1.18407816    -1.77019537     0.59014865
H      3.46072163    -2.62987418     0.59734532
H      5.86673366    -2.15484011     0.75570966
H     -0.73831279    -0.12919008    -1.15665294
H     -0.80552791     2.23286285    -0.38793362
H     -1.26071291     1.72284376     1.21399777
H     -2.43564841     2.47816118    -2.16325516
H     -3.99815516     1.67682333    -2.14691987
H     -2.51283362     0.73409955    -2.30851991
H     -3.41289500     2.82811045     1.41473747
H     -4.46200009     3.01337803    -0.00123480
H     -2.83138789     3.68260480    -0.01778551
H     -2.60612887    -1.27714561    -1.83325607
H     -2.70938321    -2.77261775    -0.92716652
H     -4.17875943    -1.89185731    -1.31201040
H     -3.16745660    -2.85185430     1.51842015
H     -4.72434601    -2.09036231     1.19823224
H     -3.63054148    -1.39807383     2.40852917
H     -1.38033911    -0.71418625     1.78663347
H     -1.03724086    -1.93075849     0.58848768
