46
conf 3 ff=MMFF E=59.928 Rg=4.34 smiles=Cc1ccc(COC2CC(C)(C)N([O])C(C)(C)C2)cc1
C      7.08748027    -0.94557269     0.16015434
C      5.65325942    -0.56693500    -0.05559982
C      5.30809633     0.74549539    -0.39602899
C      3.97320746     1.09123989    -0.62526699
C      2.95711383     0.13165275    -0.51929141
C      1.52366458     0.51015195    -0.81464014
C      3.31128755    -1.18708498    -0.20586979
C      4.64524669    -1.53361259     0.02407377
O      0.63156727    -0.24945071    -0.00035628
C     -0.75050126    -0.04337644    -0.35240576
C     -1.23505347     1.33931251     0.09893630
C     -2.76894135     1.43272096     0.36780410
C     -3.20012514     2.84188065    -0.13559027
C     -3.02290562     1.40383839     1.89521647
N     -3.44166908     0.36058741    -0.39751244
O     -4.86723461     0.51733154    -0.36908633
C     -3.06550290    -1.05037169    -0.11563887
C     -3.23033607    -1.83714613    -1.44446618
C     -3.89078846    -1.79640720     0.96643277
C     -1.57440803    -1.13900173     0.30537283
H      7.53986072    -1.25405374    -0.78733116
H      7.17068571    -1.76922506     0.87704108
H      7.65711407    -0.10327847     0.56672920
H      6.07571892     1.51015058    -0.48497612
H      3.72868498     2.11798277    -0.88774602
H      1.37761186     1.57585151    -0.60844465
H      1.32751120     0.31596407    -1.87564008
H      2.53878398    -1.95096819    -0.13456602
H      4.88674270    -2.56516198     0.26786077
H     -0.84368891    -0.13563827    -1.44210358
H     -0.94103789     2.04833231    -0.68730604
H     -0.67497070     1.65479503     0.98963866
H     -2.57525588     3.62431275     0.31247331
H     -4.23847106     3.07684954     0.12447290
H     -3.09677526     2.92474594    -1.22434819
H     -2.60305666     0.51868805     2.37769094
H     -2.55831880     2.27131979     2.38015827
H     -4.09156960     1.44370949     2.13272957
H     -4.27692582    -1.87598721    -1.76838777
H     -2.89067830    -2.87380134    -1.33348448
H     -2.64904453    -1.38763915    -2.25756685
H     -4.93527736    -1.93931906     0.66723138
H     -3.88555386    -1.27195050     1.92600305
H     -3.47650917    -2.79662127     1.14368798
H     -1.15172098    -2.11995610     0.04946604
H     -1.45731673    -1.06435381     1.39407239
