46
conf 8 ff=MMFF E=60.610 Rg=4.33 smiles=Cc1ccc(COC2CC(C)(C)N([O])C(C)(C)C2)cc1
C      7.07550000    -0.24185086     0.79820683
C      5.64435618    -0.02759597     0.40728074
C      5.18075340     1.25123326     0.07991514
C      3.85318799     1.44575494    -0.31223572
C      2.96307431     0.36557025    -0.38552034
C      1.54281681     0.58422111    -0.85433991
C      3.43981319    -0.91678913    -0.08382614
C      4.76645538    -1.11225241     0.30885087
O      0.65801987    -0.32453068    -0.20132969
C     -0.70787232    -0.16286036    -0.62778045
C     -1.42750577    -1.49612153    -0.40986942
C     -2.98155655    -1.37620783    -0.31794616
C     -3.54835755    -2.57942385    -1.12610081
C     -3.41412498    -1.57500591     1.15598754
N     -3.39929604    -0.08817049    -0.91822160
O     -4.82685372    -0.00247235    -1.02987570
C     -2.84421225     1.16965380    -0.35580244
C     -3.64511338     1.84434799     0.78905667
C     -2.75879645     2.19112810    -1.52318502
C     -1.40274888     0.93400917     0.16811583
H      7.47568181     0.63761186     1.31361740
H      7.68162433    -0.43647426    -0.09189053
H      7.17054967    -1.09045183     1.48384163
H      5.84926240     2.10716060     0.12826715
H      3.51518810     2.44915571    -0.56083712
H      1.50822617     0.42307914    -1.93826947
H      1.23878532     1.61282234    -0.63456099
H      2.76849994    -1.77142845    -0.15000536
H      5.10449957    -2.11959301     0.53870737
H     -0.71994896     0.06737462    -1.70106368
H     -1.12837147    -2.15367963    -1.23806549
H     -1.03015555    -1.98586351     0.48989188
H     -3.11066607    -3.52366657    -0.77937111
H     -4.63489572    -2.67648037    -1.02157001
H     -3.31778035    -2.48467132    -2.19414600
H     -2.92899866    -0.86918636     1.83428622
H     -4.49777068    -1.47764722     1.28275051
H     -3.14368922    -2.57905290     1.50568937
H     -3.80873947     1.17000999     1.63402599
H     -4.62360241     2.20651163     0.45400336
H     -3.10344337     2.71716169     1.17409940
H     -3.75086934     2.45851842    -1.90529063
H     -2.27951194     3.12222132    -1.19797396
H     -2.17469450     1.79914102    -2.36365310
H     -0.82410330     1.86467300     0.13298333
H     -1.40261553     0.65011683     1.22868748
