46
conf 4 ff=MMFF E=59.929 Rg=4.34 smiles=Cc1ccc(COC2CC(C)(C)N([O])C(C)(C)C2)cc1
C      7.10872732     0.69287901    -0.34559292
C      5.65873622     0.36958533    -0.54549991
C      4.84356494     0.06247763     0.54908623
C      3.48435299    -0.20543834     0.36727029
C      2.90747733    -0.15088389    -0.90830448
C      1.44828293    -0.48193781    -1.12284344
C      3.72718570     0.15880209    -2.00212185
C      5.08721863     0.42646211    -1.82133144
O      0.66783686    -0.01350908    -0.02407058
C     -0.70673002    -0.43927390    -0.10017299
C     -1.46271246     0.32784885    -1.19120815
C     -2.99990775     0.44700074    -0.95322432
C     -3.65555397     0.31704941    -2.35974690
C     -3.32816004     1.86854720    -0.43382245
N     -3.41961211    -0.65602185    -0.06165189
O     -4.84894965    -0.73688180     0.02819245
C     -2.80539540    -0.74368610     1.28994117
C     -3.53725777    -0.00954245     2.44491519
C     -2.74816327    -2.24978718     1.66455781
C     -1.34925425    -0.20785958     1.25831449
H      7.51799530     0.14187471     0.50772454
H      7.23190105     1.76535921    -0.16626359
H      7.69682953     0.41125200    -1.22540304
H      5.25696115     0.02918148     1.55399412
H      2.86523808    -0.44782658     1.22942526
H      1.35219804    -1.56964772    -1.22065954
H      1.09575040    -0.00367173    -2.04290267
H      3.30717263     0.19960718    -3.00450978
H      5.69640640     0.67892979    -2.68562935
H     -0.72050085    -1.51445275    -0.32026237
H     -1.02069105     1.32572474    -1.31543845
H     -1.26183459    -0.19165448    -2.13836155
H     -3.21171954     1.03094945    -3.06457258
H     -4.73218660     0.52043158    -2.33731766
H     -3.50932325    -0.68702518    -2.77615019
H     -4.39726157     1.99233075    -0.22951192
H     -2.77935913     2.12464929     0.47489597
H     -3.05932429     2.62444756    -1.18206983
H     -2.95574634    -0.07741765     3.37266065
H     -4.51914119    -0.44660514     2.65888645
H     -3.68219109     1.05360395     2.23378557
H     -3.74998225    -2.68137927     1.77351342
H     -2.21580689    -2.83680942     0.90752971
H     -2.22949285    -2.39911767     2.61903111
H     -0.73910825    -0.68250684     2.03860735
H     -1.30846910     0.86394237     1.49095584
