46
conf 6 ff=MMFF E=60.522 Rg=4.32 smiles=Cc1ccc(COC2CC(C)(C)N([O])C(C)(C)C2)cc1
C      7.10151650     0.07454046     0.03018810
C      5.63040016     0.12613118     0.31318696
C      4.70431265     0.04564852    -0.73221425
C      3.33374970     0.12318582    -0.47206561
C      2.86073802     0.28211747     0.83707031
C      1.38294333     0.41333285     1.12314324
C      3.79244514     0.38975748     1.87833177
C      5.16389461     0.31289517     1.61902477
O      0.63421278    -0.44112160     0.26039196
C     -0.78646709    -0.26699392     0.41743280
C     -1.29142055     0.87428743    -0.45553360
C     -2.80398063     1.12528090    -0.21862613
C     -3.34958723     1.86086569    -1.47106555
C     -2.93611070     2.10046671     0.98336523
N     -3.48026615    -0.13876760     0.17019597
O     -4.89975670    -0.02325419    -0.00133616
C     -2.97163170    -1.41386676    -0.38620427
C     -3.10507156    -1.54888978    -1.92347226
C     -3.70732462    -2.63167988     0.24445771
C     -1.46904036    -1.57392989     0.00723330
H      7.30991655    -0.55382609    -0.84215376
H      7.64750239    -0.35490571     0.87677994
H      7.48156584     1.08277450    -0.16103286
H      5.03907403    -0.08043734    -1.75880776
H      2.62595451     0.05313867    -1.29647075
H      1.17886834     0.12364178     2.16065635
H      1.09604015     1.46068971     0.98160965
H      3.45310328     0.53415186     2.90145750
H      5.86456660     0.39939280     2.44572099
H     -1.00662983    -0.07574304     1.47583519
H     -0.71531378     1.78861594    -0.26969743
H     -1.08510607     0.62883756    -1.50562216
H     -3.35268231     1.22213488    -2.35849767
H     -2.72778370     2.73384361    -1.70502873
H     -4.36910894     2.23409750    -1.32227922
H     -3.97991382     2.37748569     1.17163722
H     -2.53770216     1.66363357     1.90621898
H     -2.38640114     3.03103129     0.79823173
H     -2.48400923    -0.83006105    -2.46309289
H     -4.14017615    -1.42220054    -2.25865596
H     -2.78572790    -2.54546401    -2.25270838
H     -3.22460758    -3.57290869    -0.04616548
H     -4.75269532    -2.69906602    -0.07736240
H     -3.69259039    -2.58106777     1.33994216
H     -0.90830001    -2.03958002    -0.81496846
H     -1.35139896    -2.26821513     0.85094990
