46
conf 5 ff=MMFF E=60.474 Rg=4.33 smiles=Cc1ccc(COC2CC(C)(C)N([O])C(C)(C)C2)cc1
C      6.99731381    -0.37615429     1.44635341
C      5.59751030    -0.14521238     0.96256164
C      5.36124474     0.30992734    -0.33909272
C      4.05432906     0.48988865    -0.80121195
C      2.95721568     0.19928217     0.02168390
C      1.55239624     0.44443796    -0.48145845
C      3.19948365    -0.25750091     1.32360444
C      4.50556953    -0.43843505     1.78630694
O      0.62953984    -0.44460915     0.14120995
C     -0.74095858    -0.00447332     0.05393867
C     -1.58302707    -0.96068266     0.89413939
C     -3.09462373    -0.63290666     0.85133842
C     -3.85481387    -1.76440700     1.62071327
C     -3.38812040     0.63222794     1.70182824
N     -3.60800424    -0.43172626    -0.54488688
O     -3.76222477    -1.74214696    -1.13736683
C     -2.75973504     0.37725095    -1.47897884
C     -2.96616122     1.88957101    -1.19397642
C     -3.19627885     0.23344968    -2.97559836
C     -1.25515031     0.02244758    -1.38540603
H      7.06757367    -0.22086891     2.52811376
H      7.69477939     0.32270803     0.97267021
H      7.30956308    -1.39907494     1.21467352
H      6.19279415     0.52737399    -1.00467915
H      3.89478292     0.85198107    -1.81427313
H      1.51969956     0.27568298    -1.56320210
H      1.29167673     1.48764903    -0.26689112
H      2.36226319    -0.48828937     1.98028482
H      4.65907559    -0.81299073     2.79528723
H     -0.78291949     0.99580944     0.49716535
H     -1.21718938    -0.94591182     1.92994416
H     -1.40275543    -1.98796469     0.54696967
H     -3.54567432    -1.80117154     2.67276183
H     -3.65399341    -2.76177870     1.21349727
H     -4.93842696    -1.59631293     1.60326295
H     -2.72124911     1.46753651     1.49519531
H     -3.26337557     0.42627386     2.77245746
H     -4.42064561     0.97278223     1.56000252
H     -2.57404587     2.50374855    -2.01450230
H     -2.44973489     2.24495481    -0.30384745
H     -4.03098755     2.13132944    -1.09467037
H     -4.26415630     0.45052216    -3.09930293
H     -2.99810030    -0.76551624    -3.38020370
H     -2.64352120     0.93216261    -3.61590098
H     -0.67490284     0.74256403    -1.97593092
H     -1.05603480    -0.95342751    -1.84953535
