14
SMD(acetonitrile)-opt r2scan/def2-svp q=1 m=2
C -1.38753010 -0.00299220 -0.00002245
C -0.68424481 -1.24425643 -0.00001118
C 0.68583042 -1.24127443 -0.00000189
C 1.38755461 0.00298989 -0.00000352
C 0.68426940 1.24425424 -0.00001479
C -0.68580583 1.24127196 -0.00002409
H -1.26142646 2.17000920 -0.00003255
H 1.24722615 2.18256731 -0.00001577
O 2.70238702 -0.05843260 0.00000606
H 3.09606618 0.83985460 0.00000381
H 1.26145110 -2.17001180 0.00000657
H -1.24720148 -2.18256942 -0.00001021
O -2.70236216 0.05843018 -0.00003202
H -3.09604108 -0.83985688 -0.00002977
