34
conf 1 ff=MMFF E=60.657 Rg=3.96 smiles=COC1=CC(=O)C(c2cc(OC)ccc2OC)=CC1=O
C      5.58955824    -0.11493834    -0.32081999
O      4.72152831     1.01336313    -0.27994151
C      3.36143588     0.73783734    -0.23560989
C      2.56720062     1.62039267     0.37787811
C      1.10653023     1.46008731     0.48272375
O      0.43712064     2.33777734     1.01562883
C      0.50781776     0.22178672    -0.08302940
C     -0.94318992    -0.04234587     0.03129599
C     -1.83995867     0.84718198    -0.59121145
C     -3.21599688     0.63563434    -0.51998247
O     -4.18230355     1.42436215    -1.07979066
C     -3.75426225     2.65406101    -1.65315802
C     -3.69749969    -0.47695847     0.16836206
C     -2.82189167    -1.36505573     0.79969461
C     -1.44204334    -1.15364060     0.74365224
O     -0.50887950    -1.96275326     1.34233926
C     -0.98850613    -3.03224582     2.14809534
C      1.29178377    -0.65499146    -0.72598434
C      2.74835769    -0.46789891    -0.87866028
O      3.38897394    -1.29217847    -1.52097780
H      6.58365622     0.22037429    -0.00935348
H      5.27024754    -0.90023502     0.37256961
H      5.67814693    -0.49475089    -1.34247634
H      2.97396048     2.51604530     0.83344774
H     -1.43685273     1.70360179    -1.12330108
H     -3.12463628     2.47871302    -2.53154979
H     -4.64520417     3.19555459    -1.98546381
H     -3.24018793     3.27917506    -0.91532928
H     -4.77009531    -0.65039040     0.22263329
H     -3.25529840    -2.20831860     1.32672060
H     -1.53393685    -3.76494284     1.54452588
H     -0.12036713    -3.53886466     2.58064464
H     -1.60304760    -2.66112497     2.97491630
H      0.89783977    -1.56431371    -1.16848866
