34
conf 5 ff=MMFF E=60.742 Rg=4.06 smiles=COC1=CC(=O)C(c2cc(OC)ccc2OC)=CC1=O
C      5.77136596    -0.58866162    -0.49522529
O      4.79138231    -0.43758910    -1.51735644
C      3.46928256    -0.38357871    -1.09629145
C      2.60740073     0.31452046    -1.84216128
C      1.17511114     0.44183454    -1.52110356
O      0.43819142     1.06905779    -2.27381288
C      0.69095267    -0.22285047    -0.28184309
C     -0.70927172    -0.07924218     0.15190475
C     -1.57019174    -1.18709230     0.11909186
C     -2.90223778    -1.07724222     0.53145431
O     -3.62158366    -2.23727454     0.44542994
C     -4.99441301    -2.17294378     0.81153262
C     -3.37843384     0.15072533     0.99017682
C     -2.53159332     1.26298822     1.02857398
C     -1.20791192     1.15410869     0.59565520
O     -0.34708337     2.22054412     0.67210525
C     -0.82085046     3.34563344    -0.06954082
C      1.54113628    -0.93527238     0.46921318
C      2.96640235    -1.10055955     0.11940404
O      3.67111081    -1.81091514     0.82738157
H      6.73471940    -0.27811221    -0.91139259
H      5.86454637    -1.63869962    -0.20430182
H      5.56039974     0.04993515     0.36911905
H      2.93307674     0.82781296    -2.73964039
H     -1.21163755    -2.15085507    -0.23707358
H     -5.54209744    -1.47323210     0.17153874
H     -5.10797445    -1.91418007     1.86939886
H     -5.42661546    -3.16733805     0.66392077
H     -4.39989097     0.27653896     1.33364783
H     -2.91054417     2.20426448     1.41570604
H      0.03454309     3.99901958    -0.26598528
H     -1.54899173     3.91279199     0.51867541
H     -1.25070421     3.05272086    -1.03426828
H      1.23240524    -1.42685743     1.38606653
