34
conf 2 ff=MMFF E=60.657 Rg=3.96 smiles=COC1=CC(=O)C(c2cc(OC)ccc2OC)=CC1=O
C      5.55588005    -0.55536199     0.42844585
O      4.59464052    -1.51239022    -0.00551742
C      3.26791070    -1.10420965     0.02465515
C      2.42945511    -1.64649310    -0.86360113
C      0.99540858    -1.31599652    -0.93092714
O      0.27769199    -1.89311627    -1.73978223
C      0.48167517    -0.28600608     0.01094001
C     -0.93315640     0.14391669    -0.02996850
C     -1.93388845    -0.80905828     0.24085110
C     -3.28085259    -0.45029850     0.22390616
O     -4.33884930    -1.28090352     0.46876722
C     -4.04912442    -2.66770666     0.59901793
C     -3.62855069     0.87063972    -0.05493728
C     -2.64857126     1.82733585    -0.33487438
C     -1.29707133     1.47341403    -0.33210224
O     -0.26837168     2.33945047    -0.60712629
C     -0.61233952     3.65917599    -1.01099175
C      1.30798368     0.24203055     0.92479209
C      2.73328128    -0.12917720     1.02798767
O      3.41234911     0.36411071     1.92125770
H      6.53041313    -0.86393068     0.03761075
H      5.62807454    -0.55088662     1.51961783
H      5.34109274     0.44458107     0.03675589
H      2.77711885    -2.37332722    -1.58888053
H     -1.63404932    -1.82982675     0.45809676
H     -4.99935067    -3.19791400     0.71464103
H     -3.44956868    -2.86035175     1.49465685
H     -3.55723671    -3.05716881    -0.29864335
H     -4.67779040     1.15786250    -0.06408306
H     -2.97996124     2.83709210    -0.55227839
H      0.31696487     4.19259386    -1.23299985
H     -1.21658884     3.64965348    -1.92413010
H     -1.11951891     4.19750188    -0.20376704
H      0.97490008     0.98476492     1.64261066
