34
conf 3 ff=MMFF E=60.742 Rg=4.06 smiles=COC1=CC(=O)C(c2cc(OC)ccc2OC)=CC1=O
C      5.69315611     0.78345521     0.92430000
O      4.58225528     1.32190674     1.63416710
C      3.32498038     1.00675922     1.13606545
C      2.30944659     0.94891988     2.00316160
C      0.92337962     0.64159099     1.60932250
O      0.03753489     0.64279737     2.45685244
C      0.66920736     0.35350915     0.17252631
C     -0.67272533    -0.03862918    -0.29097082
C     -1.41321006     0.82930229    -1.10826255
C     -2.68710504     0.47694433    -1.56596607
O     -3.28923910     1.41939888    -2.35320512
C     -4.60457219     1.13158937    -2.81134293
C     -3.22485615    -0.75993582    -1.21094254
C     -2.49801020    -1.63487197    -0.39735279
C     -1.23505783    -1.27006536     0.07516359
O     -0.48494373    -2.13428769     0.83319169
C     -1.16060236    -2.52118258     2.03073970
C      1.67531146     0.41895315    -0.70946715
C      3.05471212     0.77385619    -0.31912374
O      3.91163592     0.86504645    -1.19079845
H      6.55978798     0.81520212     1.59185286
H      5.92890845     1.40147786     0.05345723
H      5.52834056    -0.26172947     0.64175843
H      2.46563630     1.13301509     3.05990873
H     -1.00565614     1.79753881    -1.39228405
H     -4.61026629     0.25336873    -3.46527837
H     -4.94800935     1.98739182    -3.40046488
H     -5.29687600     1.00527704    -1.97235196
H     -4.20253823    -1.07951396    -1.55617046
H     -2.91950403    -2.60582298    -0.15430791
H     -1.67605876    -1.67798618     2.50465531
H     -0.40794391    -2.89360376     2.73217683
H     -1.86317927    -3.33548826     1.82788597
H      1.53606094     0.20581654    -1.76434714
