34
conf 9 ff=MMFF E=60.793 Rg=3.97 smiles=COC1=CC(=O)C(c2cc(OC)ccc2OC)=CC1=O
C      5.38785150     1.58794472     0.44122206
O      4.47191750     1.14340689     1.43567813
C      3.19055988     0.81742003     1.01106787
C      2.20780199     0.87789260     1.91502544
C      0.80184423     0.56039108     1.61116869
O     -0.05245063     0.70152407     2.47878046
C      0.48385281     0.09282751     0.23604722
C     -0.89630450    -0.28633154    -0.13871762
C     -1.90341881     0.69617871    -0.07932308
C     -3.21720975     0.39046309    -0.43139190
O     -4.27717839     1.25385460    -0.41472772
C     -4.05444192     2.53178464     0.16951346
C     -3.52374244    -0.90158496    -0.85572372
C     -2.53848044    -1.89152024    -0.91166641
C     -1.22206190    -1.59692681    -0.54820257
O     -0.19354284    -2.50550415    -0.55891183
C     -0.51460854    -3.85702762    -0.86426786
C      1.45981734     0.03411776    -0.68076911
C      2.86397705     0.38432872    -0.38596813
O      3.69309809     0.30516378    -1.28528160
H      6.23230590     2.05755864     0.95513257
H      5.78219363     0.74053807    -0.12670079
H      4.93860577     2.34077568    -0.21479626
H      2.40754598     1.18097771     2.93664778
H     -1.63583705     1.69522011     0.25125394
H     -5.00923538     3.06632013     0.17744057
H     -3.71454094     2.44123166     1.20668219
H     -3.34969307     3.11852064    -0.42865102
H     -4.54600408    -1.14464209    -1.13744687
H     -2.83793755    -2.88045482    -1.24188960
H      0.40395353    -4.44545307    -0.77814244
H     -1.23838335    -4.26383990    -0.15034167
H     -0.87470231    -3.95220322    -1.89377680
H      1.27444872    -0.29295240    -1.69896338
