34
conf 4 ff=MMFF E=60.742 Rg=4.06 smiles=COC1=CC(=O)C(c2cc(OC)ccc2OC)=CC1=O
C     -5.74390803     0.44641011     0.75603410
O     -4.84169212    -0.46246495     1.37884856
C     -3.50145162    -0.32278863     1.04357227
C     -2.73310017    -1.41567628     1.08530419
C     -1.29393622    -1.40767569     0.76989062
O     -0.64611878    -2.44406533     0.86609258
C     -0.69236241    -0.11202330     0.35591971
C      0.72098259    -0.03388367    -0.05118899
C      1.64468470     0.65253794     0.75204597
C      2.99084474     0.74566678     0.38375806
O      3.77337532     1.44433427     1.26127786
C      5.16004635     1.53371280     0.95799729
C      3.41857326     0.15413844    -0.80461600
C      2.50897455    -0.53274858    -1.61489964
C      1.16978887    -0.64169635    -1.23264730
O      0.25147775    -1.26823061    -2.03783012
C      0.60725480    -2.62656684    -2.29987003
C     -1.44785425     0.99360967     0.32056184
C     -2.87949633     0.99179403     0.68314721
O     -3.49293139     2.05297884     0.67725820
H     -6.74893993     0.02004649     0.83225444
H     -5.75366456     1.40253916     1.28671056
H     -5.51842674     0.58000940    -0.30731602
H     -3.14587599    -2.37883069     1.36269943
H      1.32435320     1.11815872     1.68201169
H      5.64245541     2.09720611     1.76246477
H      5.32417655     2.08048715     0.02363512
H      5.62200122     0.54149164     0.92275755
H      4.45001621     0.21515912    -1.13564454
H      2.85296795    -0.96255758    -2.55106850
H     -0.29744467    -3.15174045    -2.62067159
H      1.33481615    -2.68119757    -3.11566786
H      0.99248712    -3.13198072    -1.40688376
H     -1.05207355     1.95642312     0.01406233
