34
conf 7 ff=MMFF E=60.742 Rg=4.06 smiles=COC1=CC(=O)C(c2cc(OC)ccc2OC)=CC1=O
C      5.80717161     0.08157534    -0.55334588
O      4.94547735     0.94267737     0.18416954
C      3.58291232     0.71830937     0.03843153
C      2.78798410     1.03116600     1.06640050
C      1.32487188     0.85961721     1.04157375
O      0.65725293     1.20395034     2.01046361
C      0.72593501     0.27763558    -0.18909887
C     -0.71876040     0.00117673    -0.26533978
C     -1.53128380     0.75192279    -1.12892152
C     -2.90468157     0.50429779    -1.22334291
O     -3.56876606     1.31194320    -2.10495244
C     -4.97585817     1.13275609    -2.20897974
C     -3.47248265    -0.51040058    -0.45322656
C     -2.67472519    -1.26660912     0.41133833
C     -1.30732684    -1.00176264     0.51850394
O     -0.49842267    -1.76473129     1.32330643
C     -0.92341457    -1.74081090     2.68680719
C      1.50915413    -0.03004244    -1.23137586
C      2.96988840     0.18727201    -1.22135485
O      3.61350783    -0.06984419    -2.23234219
H      6.80032422     0.13664044    -0.09694613
H      5.90297684     0.42679527    -1.58656552
H      5.47697786    -0.96164457    -0.50788477
H      3.19585423     1.43742341     1.98487651
H     -1.10116395     1.54686796    -1.73498277
H     -5.21855542     0.13507115    -2.58932149
H     -5.35358977     1.86456071    -2.92953056
H     -5.47070660     1.32261004    -1.25073461
H     -4.53019778    -0.74608103    -0.50678949
H     -3.12784987    -2.07183569     0.98209742
H     -1.23001790    -0.73814159     3.00605228
H     -0.07446552    -2.04679324     3.30556464
H     -1.73316469    -2.45925072     2.84806865
H      1.11514472    -0.46632085    -2.14352081
