34
conf 6 ff=MMFF E=60.742 Rg=4.06 smiles=COC1=CC(=O)C(c2cc(OC)ccc2OC)=CC1=O
C      5.66553108     0.68994614    -1.15168388
O      4.95976266    -0.49040742    -0.78208750
C      3.58527663    -0.36167809    -0.63247535
C      2.97527651    -1.17654757     0.23377811
C      1.52257634    -1.15861430     0.47890691
O      1.02966135    -1.96255696     1.26232216
C      0.71672693    -0.15293040    -0.26351260
C     -0.72922340    -0.01688671    -0.01834319
C     -1.64650932    -0.38194718    -1.01579502
C     -3.02415308    -0.25631863    -0.80899321
O     -3.79614587    -0.64918713    -1.86739440
C     -5.20649582    -0.58331250    -1.69592461
C     -3.49168967     0.24775459     0.40443646
C     -2.58898198     0.61575127     1.40715262
C     -1.21469054     0.46855306     1.20451446
O     -0.31076780     0.87027226     2.15619945
C     -0.51082188     0.20019192     3.40171034
C      1.31303886     0.66252874    -1.14321538
C      2.76240303     0.61019126    -1.42191409
O      3.22753398     1.35280734    -2.27901673
H      6.72020865     0.53694142    -0.90282406
H      5.60492969     0.85173541    -2.23152271
H      5.31534558     1.56537891    -0.59455780
H      3.53724609    -1.90599612     0.80570245
H     -1.29518037    -0.77710364    -1.96693739
H     -5.53696419     0.44976221    -1.54598529
H     -5.67246158    -0.95170202    -2.61493226
H     -5.53556627    -1.22775752    -0.87400403
H     -4.55096850     0.37600251     0.60104312
H     -2.96897763     1.03347401     2.33483296
H     -0.73173472    -0.86480408     3.26661597
H      0.41664188     0.28190510     3.97645737
H     -1.30568025     0.68727563     3.97513189
H      0.76485359     1.41727849    -1.69768478
