34
conf 0 ff=MMFF E=60.657 Rg=3.96 smiles=COC1=CC(=O)C(c2cc(OC)ccc2OC)=CC1=O
C      5.59578001    -0.01640887    -0.06021105
O      4.69841360     1.07001790    -0.26666437
C      3.34801099     0.78591312    -0.11359188
C      2.47596502     1.50423976    -0.82746853
C      1.01667557     1.31835637    -0.74890630
O      0.27665387     2.05062577    -1.39588632
C      0.50740890     0.23687827     0.13594752
C     -0.94043956    -0.05224054     0.22762185
C     -1.79682623     0.95093511     0.72078527
C     -3.16734455     0.72306776     0.83508681
O     -4.09625627     1.61361826     1.29689367
C     -3.64795701     2.94263576     1.53536098
C     -3.68288179    -0.51799124     0.46424996
C     -2.84843001    -1.52185277    -0.03569413
C     -1.47556542    -1.29751929    -0.16506785
O     -0.58280512    -2.21683012    -0.65672738
C     -1.10880418    -3.44235141    -1.15121798
C      1.37189399    -0.46922989     0.87811198
C      2.83096031    -0.24647659     0.84035385
O      3.55135026    -0.90214037     1.58435720
H      6.54650178     0.24424920    -0.53546418
H      5.23261885    -0.93909009    -0.52519983
H      5.79129938    -0.15584997     1.00666074
H      2.81373638     2.27591197    -1.50983728
H     -1.36746803     1.90688042     1.00519489
H     -2.93303813     2.97228581     2.36407118
H     -3.22319934     3.38759196     0.62925542
H     -4.51707088     3.54137352     1.82445318
H     -4.75083122    -0.70364317     0.55646814
H     -3.30780209    -2.46396707    -0.31513923
H     -1.57471051    -4.02247443    -0.34808337
H     -0.27286122    -4.02978757    -1.54306161
H     -1.80896568    -3.26962713    -1.97521341
H      1.04598832    -1.25710043     1.54961068
