34
conf 8 ff=MMFF E=60.742 Rg=4.06 smiles=COC1=CC(=O)C(c2cc(OC)ccc2OC)=CC1=O
C      5.71525202    -1.00084403     0.48787434
O      4.84649024    -0.29961270     1.37188567
C      3.50292460    -0.27737539     1.02188176
C      2.77672862     0.77535504     1.41034835
C      1.33928053     0.92002865     1.12128635
O      0.73122064     1.89763459     1.54268988
C      0.68994243    -0.15768856     0.32827775
C     -0.72411440    -0.05188629    -0.07001386
C     -1.67576802    -0.92033100     0.48653883
C     -3.02337119    -0.84344273     0.11978052
O     -3.83464464    -1.75200422     0.74177876
C     -5.22276541    -1.69048461     0.43819181
C     -3.42460702     0.10568926    -0.82003169
C     -2.48701376     0.97732183    -1.38298946
C     -1.14581886     0.91133242    -0.99795895
O     -0.20185280     1.72378331    -1.57502885
C     -0.50471972     3.10812608    -1.39561708
C      1.40278138    -1.22403440    -0.05799965
C      2.83234601    -1.38903251     0.27394936
O      3.40484838    -2.41710846    -0.06919804
H      6.73559354    -0.65747139     0.68455854
H      5.48808977    -0.78646675    -0.56181486
H      5.68687352    -2.07469004     0.69268714
H      3.22512807     1.58726101     1.97137701
H     -1.37626230    -1.66512613     1.22126822
H     -5.72876454    -2.45904342     1.03038004
H     -5.64652015    -0.72061582     0.71914670
H     -5.40468127    -1.91102341    -0.61878506
H     -4.45661073     0.18969143    -1.14420341
H     -2.81150478     1.69095483    -2.13459302
H     -1.22720547     3.44240447    -2.14670193
H     -0.87307078     3.32257241    -0.38586400
H      0.42033306     3.67328945    -1.54418376
H      0.97146303    -2.02716289    -0.64667566
