56
cfg3 ip=3.2 off=1.6 par E=-31287.8678 fmax=0.048
C        4.35268322      -0.00132623       0.02689158       0.00512676      -0.00854867      -0.00238159
N        2.89493119      -0.08486095       0.16313606       0.00179461       0.00563229      -0.00181133
C        2.21054339      -1.19609893      -0.20759637       0.00117462      -0.00567253      -0.01175997
C        0.85373203      -1.24879850      -0.19467253       0.00413955       0.00684450      -0.01637963
C        0.06893829      -0.11584547       0.18801951      -0.01466014       0.00157013      -0.02171615
C       -1.32880168      -0.04044966      -0.04494163      -0.01361750       0.00024444      -0.00131305
C       -2.06424836      -1.10529601      -0.65582582      -0.01260194      -0.00270404       0.02319787
C       -3.34684655      -0.93588256      -1.06476720       0.03208494      -0.01568399      -0.02594913
N       -4.00734494       0.23902779      -0.90255256      -0.00674264      -0.01888049       0.02796146
C       -5.36911821       0.42404134      -1.41652908       0.02326571      -0.00754145      -0.00035022
C       -3.35062718       1.28004433      -0.32502760       0.00707143       0.01022121      -0.00746983
C       -2.06749694       1.17700219       0.10291276      -0.00929169      -0.00065557      -0.00544689
C        0.83763184       1.01664113       0.61055157      -0.00915242       0.00420076      -0.00139028
C        2.19128098       1.00551762       0.57329548      -0.00710356       0.01021261       0.00027285
H        4.74301528      -0.97363219      -0.25881751      -0.01073218      -0.01178674       0.00386748
H        4.61235286       0.72189471      -0.74417586       0.00996433       0.00375089       0.00887319
H        4.80046187       0.29872202       0.97254791      -0.00386353       0.01751296      -0.00520258
H        2.80910720      -2.03282200      -0.53772965       0.00692816      -0.02024149      -0.01631045
H        0.40121531      -2.16424709      -0.54270373      -0.02449410      -0.00789733       0.00892570
H       -1.61219938      -2.06465142      -0.85641028       0.00326297      -0.00040100       0.00435956
H       -3.89087491      -1.71988414      -1.57256002      -0.01122820      -0.01552109       0.02176540
H       -5.78055864      -0.54448666      -1.68749495      -0.00127026       0.02680491      -0.00727683
H       -5.99438124       0.87399924      -0.64785704       0.00101164       0.00813230      -0.01069886
H       -5.35574937       1.06623662      -2.29567889      -0.00606753      -0.00595507       0.00039939
H       -3.90706287       2.20466210      -0.25346653       0.00772830       0.00724565       0.01843250
H       -1.61413145       2.06865332       0.50772980      -0.01329498      -0.00445622       0.02538453
H        0.36488161       1.93379704       0.92634591       0.00592030       0.01634735      -0.00222392
H        2.77734271       1.87508929       0.83642359       0.01976816       0.00827963       0.01482628
C        3.62684664      -1.46560295       4.21452601       0.00484304       0.00774190      -0.00712985
N        2.26612050      -1.27930525       3.70194261      -0.00166569      -0.00231630       0.02190494
C        1.61386341      -2.32145805       3.11705841      -0.01984514       0.00353397      -0.00021341
C        0.32330048      -2.22686535       2.71468970       0.02534152       0.01762883      -0.03071085
C       -0.43067953      -1.02142288       2.89583220       0.01740130      -0.01933145       0.02813753
C       -1.83278736      -0.96154861       2.68153716       0.01965974      -0.00954313       0.01734813
C       -2.60135453      -2.09995102       2.27778275      -0.00939362       0.01776819       0.00162734
C       -3.95782693      -2.08707801       2.32399740       0.00060102       0.02169885      -0.00723195
N       -4.65722337      -0.99313157       2.72700001      -0.02982262       0.00396947      -0.00289970
C       -6.11266522      -1.07064826       2.90155852      -0.00791633       0.01327167      -0.00212086
C       -3.97151674       0.12571428       3.08225563      -0.00776505      -0.03026526      -0.00282654
C       -2.61655249       0.17659751       3.05572402      -0.00695105       0.00182936      -0.01405714
C        0.29896339       0.04084256       3.51892334       0.01583055       0.01587886      -0.03527483
C        1.59333133      -0.11646444       3.89735030      -0.00901837      -0.00206301      -0.01036463
H        4.24783609      -1.91742048       3.44422642       0.02519846      -0.02247483       0.00948989
H        4.04282157      -0.49924553       4.48503315      -0.00062267       0.00178808       0.00212457
H        3.61661467      -2.10664776       5.09505079      -0.00827916       0.00468615      -0.01426622
H        2.18398985      -3.23640792       3.01758423      -0.03714485       0.01838506       0.00145890
H       -0.12021028      -3.11044092       2.28190159       0.00167466      -0.01323466       0.00613932
H       -2.13258595      -3.02103558       1.96744858       0.01150581      -0.00326730       0.00752646
H       -4.54896412      -2.95407109       2.05920068       0.02274265       0.01573523       0.01499479
H       -6.35560224      -1.54564720       3.85190378       0.01080713       0.00553004      -0.02893976
H       -6.52996884      -0.06679174       2.88893977       0.01219990      -0.02043490      -0.00082487
H       -6.54846775      -1.64594144       2.08718815       0.01673876       0.00065029       0.02390193
H       -4.56935759       0.96342725       3.41584525       0.01272443      -0.01744189      -0.01299376
H       -2.15895644       1.09924857       3.37758318       0.01542719       0.00526358       0.00680767
H       -0.15910050       0.99185170       3.74243631      -0.01861155       0.00246220      -0.00935746
H        2.14820705       0.67482323       4.38357899      -0.04078079      -0.01850342       0.01716486
