46
tempo/rad q=0 m=2 E=-23634.635646eV model=uma-s-1p2p1
C        7.02981648      -0.37703760       1.13821746       0.00566885      -0.00080047       0.00314551
C        5.61068643      -0.15573795       0.68947464       0.00865061       0.00138992       0.00693877
C        5.31803691       0.14783170      -0.63553324       0.00253102      -0.00596369       0.00326320
C        4.00705917       0.31859235      -1.05377766       0.00098690       0.00748158       0.00381690
C        2.95467305       0.20503297      -0.15494712      -0.00717113      -0.00323366      -0.00311305
C        1.54552390       0.46208173      -0.61314521      -0.01086173      -0.00113999      -0.00078312
C        3.23891734      -0.09900952       1.17045996      -0.00010453       0.00705405      -0.00010752
C        4.55026449      -0.27760525       1.58264612       0.00064555      -0.00499399      -0.00167866
O        0.64042339      -0.32942714       0.12858710      -0.00750571      -0.00113238      -0.00523569
C       -0.71374854       0.06750760      -0.00839136       0.00176393       0.00394804      -0.00491311
C       -1.50996910      -0.71258266       1.01513858       0.00859891       0.00629562      -0.01040223
C       -2.99809933      -0.36269637       1.02114694       0.00904247       0.00195505      -0.00505631
C       -3.76819290      -1.44599179       1.77112843       0.00468424       0.00070636      -0.00280548
C       -3.25446371       0.99198955       1.69075900       0.00071650      -0.00087666       0.00097588
N       -3.52360392      -0.32764339      -0.37016353       0.00084405      -0.00057551       0.00069194
O       -4.78943940      -0.25097790      -0.48237213       0.01214528      -0.00611537      -0.00231166
C       -2.74180483       0.14442374      -1.54345673       0.00019776      -0.00062636       0.00675801
C       -2.91230031       1.66112117      -1.68813380       0.00023221      -0.00179866      -0.00166410
C       -3.31354208      -0.54461567      -2.77953602       0.00260148       0.00014431       0.00457600
C       -1.26960305      -0.24021940      -1.38909033      -0.00373706       0.00017773       0.00657955
H        7.16100811      -0.09782894       2.18355801      -0.00138276      -0.00212687       0.00176198
H        7.31000839      -1.42822245       1.04065315      -0.00190802      -0.00026932      -0.00019680
H        7.72928814       0.20663768       0.53990729      -0.00198772      -0.00165913      -0.00302291
H        6.12580935       0.24542814      -1.35180676       0.00056791       0.00071992       0.00037981
H        3.80147218       0.54566560      -2.09408583      -0.00192380      -0.00288765      -0.00311647
H        1.29669419       1.52485373      -0.47273557      -0.00282310       0.00330452      -0.00215535
H        1.47039939       0.24912617      -1.68533782       0.00519725       0.00370468      -0.00293403
H        2.42548887      -0.20162731       1.87644483      -0.00261134      -0.00305553      -0.00024631
H        4.75538115      -0.51418972       2.62065416       0.00060076       0.00067723      -0.00015171
H       -0.77965615       1.14598116       0.19388793       0.00028108       0.00102462       0.00157890
H       -1.10590133      -0.53567501       2.01422812      -0.00682313      -0.00728143      -0.00628621
H       -1.38117678      -1.77644579       0.79476863      -0.00189392       0.00488304       0.00539391
H       -3.66484521      -2.40612610       1.26472553      -0.00016164      -0.00513259      -0.00008876
H       -4.82510439      -1.19692110       1.82776583      -0.00090490      -0.00165812       0.00613969
H       -3.36742783      -1.53841595       2.78160988       0.00513348       0.00130970      -0.00000135
H       -3.02478834       0.92149044       2.75500519      -0.00758946       0.00180263       0.00188198
H       -2.64327443       1.78856073       1.26709192      -0.00439494      -0.00256266      -0.00051376
H       -4.30473138       1.25851405       1.57508780       0.00443824       0.00863271       0.00550664
H       -2.42292473       2.21409245      -0.88674096      -0.00646467      -0.00375766      -0.00203128
H       -2.48001535       1.98742243      -2.63556514      -0.00901312       0.00389653      -0.00237111
H       -3.97385454       1.90745792      -1.68415371       0.00622361       0.00591314      -0.00042004
H       -3.27327889      -1.62808566      -2.66328947      -0.00538682      -0.00255669      -0.00431682
H       -2.72191238      -0.26450965      -3.65255381      -0.00142642      -0.00037599      -0.00045350
H       -4.34828736      -0.25165735      -2.94058418       0.00260589       0.00020610      -0.00254770
H       -0.71240455       0.28340967      -2.16927082      -0.00050802      -0.00962543       0.01103086
H       -1.14660013      -1.31397141      -1.56177040       0.00222595       0.00497802      -0.00149437
