56
MV2 pimer q=2 m=1 E=-31287.8676eV fmax=0.037
C        4.30465128      -0.03172514       0.07267444       0.01262117      -0.00512938       0.00003611
N        2.84817480      -0.11087271       0.21449803      -0.02378290       0.01026917       0.00381352
C        2.15987910      -1.22197908      -0.15151755       0.00190681      -0.00952818      -0.01909720
C        0.80366340      -1.27323915      -0.12684594       0.00278993      -0.00785756       0.01554026
C        0.02305493      -0.13965603       0.26216231       0.01111613      -0.00330620      -0.00894820
C       -1.37669066      -0.07115931       0.04176689       0.01407022       0.01520100       0.00078050
C       -2.11466953      -1.14546960      -0.54746812       0.01216266      -0.00056267       0.01535872
C       -3.39811478      -0.98184584      -0.95601961      -0.00036539      -0.01551197      -0.00074262
N       -4.05721882       0.19575700      -0.81035053       0.01566160       0.00316688      -0.00070834
C       -5.41615750       0.38355975      -1.33051928       0.00828295      -0.00464370       0.01321866
C       -3.40127265       1.24136394      -0.23955348      -0.01672265       0.00354141       0.01281240
C       -2.11870595       1.14279189       0.18954340      -0.00434015       0.01318160       0.02145353
C        0.79517709       0.99520052       0.67318693      -0.01331615       0.01652306      -0.00694807
C        2.14874978       0.98055799       0.63027529      -0.00538061       0.02001348      -0.02386697
H        4.68692022      -1.00241633      -0.22618293       0.01388155      -0.03203075       0.00538274
H        4.56859637       0.69829422      -0.68966140      -0.01119964       0.01756981      -0.01669965
H        4.75765513       0.25695801       1.01860126       0.00915418       0.00860944       0.02330457
H        2.75482683      -2.05870624      -0.48901050       0.00431638      -0.01325100      -0.00381412
H        0.34295341      -2.18933568      -0.46244477       0.00786615      -0.00484997      -0.01381682
H       -1.66266364      -2.10868867      -0.72934769      -0.01671720       0.00319178      -0.00692332
H       -3.94584590      -1.77779080      -1.43977767      -0.02075439      -0.00754289      -0.01328374
H       -5.82324263      -0.57715926      -1.62976542       0.01101254      -0.02788630       0.00258856
H       -6.04887488       0.81163134      -0.55624806      -0.01670706       0.01984834       0.00017263
H       -5.40193886       1.04460587      -2.19461910       0.01507559       0.02010003      -0.00938866
H       -3.95762236       2.16567625      -0.16781959      -0.01290983       0.00622472       0.00187243
H       -1.67135724       2.03465817       0.60096300       0.00183424      -0.00376969       0.00124710
H        0.32587154       1.91619827       0.98502786       0.00755935      -0.00519961       0.00229692
H        2.73913431       1.84874636       0.89052668       0.00530471      -0.00287427       0.00541673
C       -6.06432666      -1.12133218       3.02117974      -0.01114597      -0.00208612       0.00524417
N       -4.61335535      -1.02792631       2.83334543       0.02127435       0.00158556      -0.01030775
C       -3.93187806       0.09033202       3.20169463      -0.00657225      -0.01724472       0.01224060
C       -2.57777087       0.15066989       3.17180812       0.00432420       0.00684080       0.00406680
C       -1.78937930      -0.97780923       2.77759013      -0.00075056      -0.00767447      -0.00424346
C       -0.38783858      -1.03584491       2.98554301      -0.01218489      -0.02126431       0.00206223
C        0.34729992       0.02982611       3.59287101      -0.01733891       0.00058426      -0.00692641
C        1.63026357      -0.14098526       4.00473052       0.01366090      -0.00430147      -0.02644981
N        2.29058226      -1.31607744       3.83948561       0.00072586       0.00343692       0.00425698
C        3.65238168      -1.51726826       4.34695191      -0.00699778       0.00726437      -0.00250713
C        1.63975210      -2.35059269       3.23950917       0.01158077       0.00458187       0.00087919
C        0.36034334      -2.24423566       2.80954280      -0.00468644      -0.00409572       0.00041298
C       -2.55219184      -2.11936477       2.37265088       0.00511776       0.01275947      -0.00288207
C       -3.90742870      -2.11487820       2.42323740       0.01619912      -0.01187551       0.00260057
H       -6.49930752      -0.12724248       2.98323467      -0.00148263       0.03268114      -0.00054299
H       -6.49776595      -1.72797767       2.23022567       0.01195332      -0.01104445      -0.01832212
H       -6.29098969      -1.57411660       3.98447686      -0.01290080      -0.00723122       0.02977715
H       -4.53232300       0.91752634       3.55481724      -0.00532040      -0.00244446      -0.01870047
H       -2.12133997       1.06657501       3.51684433      -0.01643282      -0.00821159      -0.01899695
H       -0.10567205       0.99090160       3.78400305       0.01601601      -0.01036088       0.01848879
H        2.17665937       0.65201157       4.49634516       0.02100399      -0.02881291       0.00969161
H        3.65354932      -2.27701875       5.12629135      -0.01672120      -0.00348484      -0.00178197
H        4.30675443      -1.83176970       3.53576010       0.00766070      -0.00648289       0.00829175
H        4.02428465      -0.58702996       4.76487903      -0.01640522       0.03195858      -0.00233003
H        2.19454793      -3.27532716       3.15346128       0.02081094       0.01878113       0.01056251
H       -0.08345964      -3.12929363       2.37985822      -0.00059986       0.00524887      -0.00517142
H       -2.07496162      -3.03366983       2.05435754      -0.02306809      -0.00339852       0.01180358
H       -4.49010580      -2.98727440       2.16023906      -0.01014050       0.01079454      -0.00227395
