12
bm_2_3_5_6_tetrafluoro_1_4_benzoquinone_fluoranil conf 0 ff=MMFF E=18.936
O     -0.61714176     2.59327551    -0.21079776
C     -0.33471782     1.40650998    -0.11433034
C      1.02832741     0.94817887     0.22176019
F      1.95102897     1.91032977     0.41801352
C      1.33515962    -0.34115059     0.32656268
F      2.58312939    -0.74579410     0.63391104
C      0.33471846    -1.40651000     0.11432812
O      0.61714077    -2.59327552     0.21080022
C     -1.02832653    -0.94817883    -0.22176308
F     -1.95102929    -1.91032921    -0.41801327
C     -1.33515884     0.34115053    -0.32656482
F     -2.58313038     0.74579360    -0.63390650
