21
ferrocene eclipsed-D5h starting geometry
Fe     0.00000000     0.00000000     0.00000000
C      1.21643066     0.00000000     1.65000000
H      2.29643066     0.00000000     1.65000000
C      0.37589775     1.15689430     1.65000000
H      0.70963610     2.18403534     1.65000000
C     -0.98411307     0.71500000     1.65000000
H     -1.85785143     1.34980807     1.65000000
C     -0.98411307    -0.71500000     1.65000000
H     -1.85785143    -1.34980807     1.65000000
C      0.37589775    -1.15689430     1.65000000
H      0.70963610    -2.18403534     1.65000000
C      1.21643066     0.00000000    -1.65000000
H      2.29643066     0.00000000    -1.65000000
C      0.37589775     1.15689430    -1.65000000
H      0.70963610     2.18403534    -1.65000000
C     -0.98411307     0.71500000    -1.65000000
H     -1.85785143     1.34980807    -1.65000000
C     -0.98411307    -0.71500000    -1.65000000
H     -1.85785143    -1.34980807    -1.65000000
C      0.37589775    -1.15689430    -1.65000000
H      0.70963610    -2.18403534    -1.65000000
