52
MV_solv ox1 q=1 m=2 E=-30095.7490eV fmax=0.032
C        4.94165750       0.36933464      -0.51839100      -0.00774859       0.00173971       0.00538399
N        3.49811933       0.26498093      -0.33606513      -0.00155989       0.01323756       0.00839794
C        2.67289193       0.99932225      -1.12221644      -0.01629570      -0.00449013      -0.01150355
C        1.32400784       0.92356452      -1.01463197       0.01244946      -0.02683195      -0.00295130
C        0.70387140       0.04767575      -0.07377436       0.00639545       0.01973909      -0.00945529
C       -0.70272934      -0.05540073       0.06110422      -0.00073720      -0.01077130       0.02241438
C       -1.60989923       0.78511917      -0.64876306      -0.02851863       0.01079574      -0.00021902
C       -2.95207947       0.67580001      -0.47872995       0.01305886      -0.01858252       0.01670816
N       -3.49571190      -0.24199131       0.35487307      -0.00627513       0.02395493       0.00364875
C       -4.94034185      -0.37816113       0.50375096       0.00729279      -0.00040396       0.00619922
C       -2.67368267      -1.07259456       1.04187333       0.01256896      -0.02091170       0.00650356
C       -1.32500468      -1.00301238       0.92832533      -0.00765927       0.00219718      -0.02685845
C        1.61394263      -0.70512050       0.72550065      -0.00528638      -0.00697990       0.01293032
C        2.95636179      -0.57143766       0.58019356       0.02682078       0.00443425      -0.00877148
H        5.23337903       1.41646645      -0.48241993      -0.00700105      -0.00071213       0.02620496
H        5.43976529      -0.15993026       0.28829447      -0.00319153       0.01052247       0.01154790
H        5.21532888      -0.07832888      -1.47173557       0.01222523       0.00255564       0.00582034
H        3.15902543       1.64656609      -1.83796075       0.00540410      -0.00946005       0.00489961
H        0.73759858       1.53603629      -1.68028887      -0.00947396       0.02922634      -0.00822212
H       -1.25808521       1.54616680      -1.32714812       0.00491443       0.00685014      -0.00285747
H       -3.64917426       1.31925355      -0.99426483      -0.01658656      -0.01231991      -0.00931246
H       -5.19499811      -0.36176678       1.56105643       0.00654259       0.02415933      -0.00262719
H       -5.26242780      -1.30851516       0.04022218      -0.01128931       0.00572825       0.00285003
H       -5.42688914       0.46013357       0.01451843       0.00032980       0.01141301       0.00912925
H       -3.16241330      -1.79178372       1.68368216      -0.00104453       0.01206757      -0.01156541
H       -0.74122730      -1.70330029       1.50376189       0.00964046      -0.00536966       0.02824949
H        1.26365842      -1.38920571       1.48247357       0.00072704       0.00064549       0.00232694
H        3.65671048      -1.12038116       1.19231564       0.00650049      -0.00675256      -0.02077908
C        3.33563365      -3.67275756      -4.42022873       0.00199478      -0.00076294       0.00081761
C        3.54537511      -2.61733645      -3.43817950      -0.00131254       0.00978837       0.00751399
N        3.71066344      -1.78521102      -2.66572658      -0.00393543       0.01159567       0.00642627
H        4.29660979      -4.03894287      -4.77587899      -0.00159982      -0.00507784      -0.01307447
H        2.78719676      -4.49440476      -3.96446283      -0.00623609      -0.00348540      -0.00566395
H        2.76645860      -3.28319358      -5.26179031      -0.00414746      -0.01360283      -0.00174355
C        3.58734749       4.23259188       3.71348422       0.00002745      -0.00416809      -0.00635592
C        3.74395766       3.25539100       2.64343750       0.00248912      -0.00516122      -0.00765908
N        3.87040720       2.48680780       1.80078048       0.00496929      -0.01627589      -0.01883623
H        2.53027403       4.38827339       3.91904970      -0.00344051      -0.00640277      -0.00057125
H        4.07790742       3.87231719       4.61568533      -0.00084846       0.00823042       0.00000916
H        4.03613787       5.17804518       3.41499785       0.00090580       0.00316984       0.01075498
C       -3.56877648      -4.20055831      -3.69086686       0.00202828      -0.00096047       0.00224426
C       -3.72298965      -3.25134679      -2.59661898       0.00474616       0.00022459       0.00310732
N       -3.84444865      -2.50525507      -1.73361381       0.00181113       0.01082401       0.01701519
H       -2.51144963      -4.35699702      -3.89417317       0.00309657      -0.00010716      -0.00993475
H       -4.02432210      -5.15054754      -3.41854870      -0.00243491      -0.00653304      -0.01384202
H       -4.05340360      -3.81276259      -4.58481998       0.00523790      -0.01333386      -0.00517573
C       -3.34779384       3.70305987       4.44107158      -0.00477735      -0.00348794      -0.00305488
C       -3.55607825       2.66449784       3.43993697      -0.00257060      -0.01685541      -0.01440653
N       -3.72267570       1.84664269       2.65228162      -0.00522768      -0.01078410      -0.01037779
H       -4.30928758       4.08675396       4.77624812      -0.00063196       0.00636796       0.00830988
H       -2.81057438       3.29084504       5.29288783       0.00482533       0.00604783      -0.00356396
H       -2.76900616       4.51871484       4.01267063       0.00282804      -0.00493059      -0.00003035
