38
bm_n_n_diisopropylpyromellitic_diimide conf 8 ff=MMFF E=-36.711
C      5.45264869     0.92251838     0.59276453
C      4.77779082    -0.36145941     0.11151339
C      5.30016157    -0.77557390    -1.26372189
N      3.32086525    -0.23815839     0.11840842
C      2.50572577    -1.01684152     0.89773907
O      2.79323633    -1.89990589     1.68193721
C      1.13254709    -0.59678228     0.62633457
C     -0.06036104    -1.06430668     1.15206147
C     -1.19092151    -0.42993069     0.66467232
C     -2.60051951    -0.65079976     0.98256806
O     -2.97972090    -1.48708679     1.77871106
N     -3.32086569     0.23816060     0.22859732
C     -4.77779122     0.36146288     0.23549661
C     -5.30015882     0.77557045     1.61073467
C     -5.45265066    -0.92251220    -0.24575922
C     -2.50572702     1.01683724    -0.55074162
O     -2.79323927     1.89989447    -1.33494813
C     -1.13254796     0.59677867    -0.27933665
C      0.06036016     1.06430318    -0.80506346
C      1.19092067     0.42992833    -0.31767286
C      2.60051955     0.65080176    -0.63556197
O      2.97972313     1.48709286    -1.43169855
H      5.27095176     1.75937625    -0.08930840
H      6.53610198     0.78394477     0.67140087
H      5.07575246     1.21092731     1.58004020
H      5.04566290    -1.15735528     0.81750181
H      6.37997798    -0.95467756    -1.22944597
H      4.81456295    -1.69802325    -1.60020504
H      5.11232930    -0.00667752    -2.02008323
H     -0.10557642    -1.86138118     1.88492375
H     -5.04566303     1.15736226    -0.47048660
H     -5.11235153     0.00665528     2.36708252
H     -6.37997020     0.95470159     1.57645580
H     -4.81453819     1.69800166     1.94723667
H     -6.53610553    -0.78394596    -0.32437491
H     -5.27093463    -1.75937552     0.43629703
H     -5.07577082    -1.21090183    -1.23304338
H      0.10557559     1.86137767    -1.53792591
