38
bm_n_n_diisopropylpyromellitic_diimide conf 0 ff=MMFF E=-36.711
C     -5.38576884    -1.29704960     0.16028740
C     -4.77650779    -0.05193202    -0.48323442
C     -5.40664832     1.22211140     0.07834658
N     -3.32055515    -0.03552242    -0.34975815
C     -2.46844286    -0.06335366    -1.42273936
O     -2.71775662    -0.10408880    -2.61169623
C     -1.10962523    -0.03461946    -0.88559975
C      0.10764783    -0.04600513    -1.54598924
C      1.21361595    -0.00975075    -0.71312142
C      2.63733016    -0.00873021    -1.04454950
O      3.05470836    -0.04238622    -2.18546056
N      3.32055480     0.03554225     0.14240648
C      4.77650746     0.05193888     0.27588361
C      5.38578483     1.29703270    -0.36766650
C      5.40663264    -1.22212569    -0.28566547
C      2.46844259     0.06336794     1.21538756
O      2.71775662     0.10409482     2.40434434
C      1.10962487     0.03463652     0.67824794
C     -0.10764811     0.04602189     1.33863746
C     -1.21361614     0.00976760     0.50576948
C     -2.63733024     0.00874359     0.83719795
O     -3.05470832     0.04238834     1.97810896
H     -6.46345416    -1.34224902    -0.02894053
H     -4.93172937    -2.20577875    -0.24959077
H     -5.23553612    -1.31100435     1.24463036
H     -5.00998593    -0.08871456    -1.55456992
H     -5.25724506     1.30898710     1.15940858
H     -4.96750188     2.10967850    -0.38996451
H     -6.48483325     1.23706595    -0.11283218
H      0.18827801    -0.08046550    -2.62616086
H      5.00998501     0.08874426     1.34721823
H      5.23555882     1.31096107    -1.45200989
H      6.46346957     1.34222577    -0.17843366
H      4.93175381     2.20577681     0.04218554
H      4.96747636    -2.10967505     0.18266915
H      5.25722621    -1.30902738    -1.36672454
H      6.48481772    -1.23708785    -0.09448765
H     -0.18827824     0.08048103     2.41880909
