38
bm_n_n_diisopropylpyromellitic_diimide conf 7 ff=MMFF E=-36.711
C      5.39182244     1.09787482    -0.69373043
C      4.77589160     0.16921776     0.35214796
C      5.40171626    -1.22357885     0.28814249
N      3.32016088     0.11069073     0.22842880
C      2.63920810    -0.35499505    -0.86567418
O      3.05879635    -0.79782835    -1.91679708
C      1.21482029    -0.23215275    -0.56098270
C      0.11043073    -0.56171311    -1.32900785
C     -1.10814522    -0.30972441    -0.72108289
C     -2.46596107    -0.52514320    -1.21672536
O     -2.71299014    -0.98969839    -2.31244452
N     -3.32016183    -0.11070095    -0.22842566
C     -4.77589318    -0.16922132    -0.35214329
C     -5.39183120    -1.09785370     0.69375273
C     -5.40170655     1.22358172    -0.28816776
C     -2.63920749     0.35498895     0.86567450
O     -3.05879387     0.79782768     1.91679555
C     -1.21482027     0.23214337     0.56098273
C     -0.11043112     0.56170297     1.32900826
C      1.10814440     0.30971338     0.72108361
C      2.46595936     0.52513033     1.21672850
O      2.71298711     0.98967977     2.31244952
H      4.94084310     2.09467231    -0.63939257
H      6.46929844     1.20454232    -0.52964815
H      5.24389110     0.72168545    -1.71115937
H      5.00730887     0.58780796     1.33949448
H      5.25419372    -1.69267843    -0.68999145
H      6.47942668    -1.17234628     0.47568343
H      4.95778346    -1.88210574     1.04260011
H      0.19314517    -0.98238658    -2.32432337
H     -5.00731370    -0.58782983    -1.33948141
H     -6.46931152    -1.20450041     0.52968473
H     -5.24387827    -0.72166072     1.71117788
H     -4.94087279    -2.09466230     0.63941527
H     -5.25415828     1.69271377     0.68994608
H     -6.47942114     1.17235188    -0.47568504
H     -4.95778481     1.88207909    -1.04265715
H     -0.19314558     0.98237610     2.32432360
