38
bm_n_n_diisopropylpyromellitic_diimide conf 1 ff=MMFF E=-36.711
C     -5.37955081    -0.48865913    -1.15784297
C     -4.74066582    -0.68864481     0.21600857
C     -5.41776256     0.18624964     1.27039815
N     -3.29680972    -0.46163640     0.17563374
C     -2.37594360    -1.43570619     0.46085585
O     -2.54636478    -2.59593209     0.78064704
C     -1.05559498    -0.82710638     0.31247831
C      0.20242233    -1.37967452     0.48585201
C      1.25101257    -0.50382658     0.25892099
C      2.69333084    -0.72606901     0.34338355
O      3.18492375    -1.79492207     0.64818781
N      3.29681017     0.46163599     0.02277414
C      4.74066657     0.68864426    -0.01759810
C      5.37954841     0.48865702     1.35625474
C      5.41776476    -0.18624813    -1.07198809
C      2.37594406     1.43570718    -0.26244346
O      2.54636506     2.59593499    -0.58222827
C      1.05559537     0.82710673    -0.11406850
C     -0.20242196     1.37967468    -0.28744283
C     -1.25101229     0.50382666    -0.06051243
C     -2.69333067     0.72606814    -0.14497767
O     -3.18492396     1.79491902    -0.44978632
H     -4.89141993    -1.12126419    -1.90716200
H     -6.44205347    -0.75266298    -1.13242382
H     -5.30063676     0.54914218    -1.49741031
H     -4.90303581    -1.73469011     0.50419415
H     -5.34038170     1.25106352     1.02801809
H     -4.95687717     0.03489447     2.25254748
H     -6.48117694    -0.06164055     1.35380257
H      0.35403064    -2.41293425     0.77541862
H      4.90303669     1.73469052    -0.30577897
H      4.89141370     1.12125960     2.10557409
H      6.44205029     0.75266374     1.33083885
H      5.30063648    -0.54914608     1.69581716
H      4.95688299    -0.03488541    -2.05413765
H      5.34037758    -1.25106200    -0.82961248
H      6.48118060     0.06163803    -1.15538700
H     -0.35402987     2.41293452    -0.57700950
