38
bm_n_n_diisopropylpyromellitic_diimide conf 4 ff=MMFF E=-36.711
C     -5.45144881    -0.75565350    -0.68018531
C     -4.77542277     0.39082971     0.07094823
C     -5.31762900     0.51130566     1.49472286
N     -3.31951530     0.25632452     0.05972012
C     -2.48587481     1.17312754    -0.52566387
O     -2.75386658     2.20465870    -1.11009408
C     -1.12048873     0.69078598    -0.32869308
C      0.08437585     1.24597523    -0.72626512
C      1.20203006     0.51118505    -0.36698623
C      2.61829729     0.77916849    -0.61025499
O      3.01676864     1.76041428    -1.20640337
N      3.31951574    -0.25631696    -0.05018034
C      4.77542220    -0.39082964    -0.06141750
C      5.45146116     0.75566357     0.68968904
C      5.31761513    -0.51133421    -1.48519501
C      2.48587487    -1.17311893     0.53520393
O      2.75386529    -2.20465277     1.11962959
C      1.12048969    -0.69077344     0.33823724
C     -0.08437490    -1.24596403     0.73580752
C     -1.20202890    -0.51117348     0.37652918
C     -2.61829618    -0.77916112     0.61979312
O     -3.01676642    -1.76041033     1.21593601
H     -5.06027112    -0.83345572    -1.70041440
H     -5.28718454    -1.71934927    -0.18736479
H     -6.53241242    -0.59216615    -0.74378921
H     -5.02571729     1.32043563    -0.45517919
H     -5.14800468    -0.40167809     2.07459435
H     -4.83103462     1.33691943     2.02531609
H     -6.39539841     0.70504149     1.48305264
H      0.14757658     2.17909622    -1.27375692
H      5.02571598    -1.32042761     0.46472468
H      6.53242246     0.59216337     0.75329993
H      5.28721163     1.71934929     0.19684336
H      5.06028256     0.83349739     1.70991552
H      6.39538078    -0.70508964    -1.47352973
H      4.83100207    -1.33694388    -2.01577685
H      5.14800338     0.40164708    -2.06507601
H     -0.14757586    -2.17908986     1.28329343
