38
bm_n_n_diisopropylpyromellitic_diimide conf 2 ff=MMFF E=-36.711
C      5.34814766     0.79689330    -1.32763860
C      4.78637378     0.21938888    -0.02897196
C      5.41472417    -1.13741591     0.28708631
N      3.32670646     0.14111273    -0.06255773
C      2.59703021    -0.61684859    -0.94044605
O      2.96858358    -1.35082939    -1.83500515
C      1.18805312    -0.39705866    -0.61906857
C      0.05017656    -0.92574676    -1.20547646
C     -1.13950404    -0.49597670    -0.64160167
C     -2.51819390    -0.83368986    -0.98929998
O     -2.81451340    -1.59514539    -1.88919803
N     -3.32670719    -0.14108095    -0.12630727
C     -4.78637388    -0.21937826    -0.15987602
C     -5.34811626    -0.79695471     1.13877352
C     -5.41475419     1.13743118    -0.47585943
C     -2.59703073     0.61687259     0.75158741
O     -2.96858446     1.35084040     1.64615730
C     -1.18805376     0.39708546     0.43020775
C     -0.05017733     0.92577221     1.01661680
C      1.13950336     0.49600197     0.45274195
C      2.51819367     0.83370762     0.80044629
O      2.81451362     1.59513936     1.70036301
H      4.89576645     1.77044873    -1.54554180
H      5.15410874     0.14182853    -2.18309343
H      6.43167146     0.93656255    -1.25197892
H      5.06219791     0.90544976     0.78150097
H      5.22334645    -1.86990263    -0.50373717
H      6.49983859    -1.04393795     0.40129972
H      5.00981926    -1.54312473     1.22057081
H      0.08776572    -1.61906375    -2.03755669
H     -5.06219872    -0.90540582    -0.97037785
H     -5.15408026    -0.14192166     1.99425362
H     -6.43163790    -0.93664523     1.06312288
H     -4.89570947    -1.77050915     1.35662862
H     -6.49986738     1.04393649    -0.59006938
H     -5.22338742     1.86988159     0.31500071
H     -5.00986388     1.54319650    -1.40932630
H     -0.08776658     1.61908623     1.84869952
