38
bm_n_n_diisopropylpyromellitic_diimide conf 3 ff=MMFF E=-36.711
C     -5.25119511    -0.05359529     1.78343202
C     -4.76141686    -0.38499127     0.37420056
C     -5.48603342     0.45982782    -0.67310598
N     -3.30977285    -0.24926208     0.26378816
C     -2.47882134    -1.29735550    -0.03483904
O     -2.74627736    -2.46282568    -0.25296997
C     -1.11734815    -0.76655281    -0.05405214
C      0.08382201    -1.40925229    -0.30330219
C      1.19835713    -0.58964066    -0.23851774
C      2.61037609    -0.90940428    -0.44041249
O      3.00742682    -2.02552966    -0.71175978
N      3.30978039     0.25559758    -0.26370635
C      4.76141976     0.39133638    -0.37416805
C      5.25112715     0.06008874    -1.78345905
C      5.48608928    -0.45359417     0.67301171
C      2.47882653     1.30369690     0.03489380
O      2.74627961     2.46917454     0.25298924
C      1.11735376     0.77289328     0.05411417
C     -0.08381663     1.41559317     0.30336227
C     -1.19835159     0.59598110     0.23857988
C     -2.61037151     0.91574581     0.44046651
O     -3.00742669     2.03187960     0.71177376
H     -5.07983949     0.99720558     2.03842236
H     -6.32461251    -0.24974198     1.87593868
H     -4.72995369    -0.66521954     2.52785498
H     -5.01119391    -1.43521495     0.17857922
H     -5.32405105     1.53117452    -0.51643987
H     -6.56506271     0.27596351    -0.63925640
H     -5.13226137     0.21428379    -1.68032804
H      0.14660622    -2.46703779    -0.53047609
H      5.01120650     1.44153919    -0.17844799
H      4.72985544     0.67179768    -2.52779055
H      6.32454231     0.25623485    -1.87599622
H      5.07974685    -0.99068267    -2.03855291
H      6.56511535    -0.26971317     0.63913521
H      5.13235939    -0.20816848     1.68027748
H      5.32411707    -1.52492415     0.51622932
H     -0.14660138     2.47337961     0.53053152
