38
bm_n_n_diisopropylpyromellitic_diimide conf 9 ff=MMFF E=-36.711
C     -5.31191312     1.48476898    -0.55612438
C     -4.77998294     0.07444268    -0.30380301
C     -5.44518464    -0.55377743     0.92032234
N     -3.32238252     0.06215168    -0.18920087
C     -2.60115231     0.71426984     0.77629779
O     -2.97995286     1.40778267     1.69964414
C     -1.19112393     0.43195536     0.51375931
C     -0.05968211     0.85063692     1.19397551
C      1.13340535     0.38865919     0.66377196
C      2.50742197     0.61859675     1.10528837
O      2.79562779     1.29877124     2.07055130
N      3.32238369    -0.06210566     0.23889456
C      4.77998201    -0.07441835     0.35351828
C      5.31187435    -1.48474158     0.60594783
C      5.44522153     0.55369520    -0.87064267
C      2.60115422    -0.71424194    -0.72659344
O      2.97995625    -1.40777503    -1.64992390
C      1.19112539    -0.43192777    -0.46405672
C      0.05968318    -0.85061129    -1.14427138
C     -1.13340453    -0.38863317    -0.61406837
C     -2.50742254    -0.61857383    -1.05557965
O     -2.79563284    -1.29877903    -2.02081957
H     -5.12384054     2.14980708     0.29294127
H     -6.39250541     1.46473881    -0.73268318
H     -4.83321026     1.92689342    -1.43663881
H     -5.04849603    -0.53794801    -1.17357529
H     -6.52895738    -0.62248647     0.77900128
H     -5.06149981    -1.56523454     1.09259970
H     -5.26246088     0.02966032     1.82849484
H     -0.10439012     1.48768368     2.06955063
H      5.04849186     0.53802910     1.22325205
H      5.12381938    -2.14982743    -0.24308998
H      6.39246188    -1.46472133     0.78254317
H      4.83313007    -1.92680896     1.48647301
H      6.52898714     0.62243323    -0.72928428
H      5.06152994     1.56513007    -1.04303718
H      5.26254746    -0.02983571    -1.77876414
H      0.10439133    -1.48765868    -2.01984587
