38
bm_n_n_diisopropylpyromellitic_diimide conf 5 ff=MMFF E=-36.711
C      5.28989896    -1.56272744    -0.52928835
C      4.78222959    -0.15664557    -0.21173627
C      5.43996798     0.39323733     1.05342972
N      3.32350310    -0.12002410    -0.11867753
C      2.53641920     0.62159413    -0.96049825
O      2.85372734     1.34488325    -1.88440389
C      1.15112487     0.39765788    -0.55240287
C     -0.02376720     0.91126167    -1.07569721
C     -1.17419649     0.48143845    -0.43545267
C     -2.57387498     0.80625927    -0.70415068
O     -2.92377168     1.55449130    -1.59563058
N     -3.32350215     0.12002600     0.21495952
C     -4.78222954     0.15663441     0.30800751
C     -5.43995668    -0.39324200    -0.95716773
C     -5.28991258     1.56271097     0.62556753
C     -2.53641814    -0.62158167     1.05678726
O     -2.85372750    -1.34487433     1.98069050
C     -1.15112287    -0.39763664     0.64869985
C      0.02376926    -0.91124201     1.17199364
C      1.17419850    -0.48141949     0.53174779
C      2.57387672    -0.80624978     0.80043825
O      2.92377386    -1.55448235     1.69191746
H      4.81674164    -1.94852937    -1.43880337
H      5.07490488    -2.26687275     0.28097013
H      6.37338612    -1.55602029    -0.68824218
H      5.07694399     0.49434439    -1.04419018
H      5.07381607     1.40214346     1.27247908
H      5.23098007    -0.23262802     1.92703203
H      6.52703874     0.44665626     0.93227107
H     -0.04157836     1.59371185    -1.91736475
H     -5.07694475    -0.49436582     1.14045273
H     -5.23096967     0.23262942    -1.83076662
H     -5.07379636    -1.40214227    -1.17622429
H     -6.52702756    -0.44667166    -0.83601572
H     -4.81676508     1.94851184     1.53508988
H     -6.37340119     1.55599440     0.78451215
H     -5.07491845     2.26686416    -0.18468571
H      0.04158036    -1.59369489     2.01365848
