38
bm_n_n_diisopropylpyromellitic_diimide conf 6 ff=MMFF E=-36.711
C     -5.32412392    -1.17001286    -1.02118827
C     -4.78975610    -0.04644998    -0.13366710
C     -5.39830218    -0.11456336     1.26657105
N     -3.32840370    -0.04836063    -0.08541239
C     -2.55646433    -1.06662115     0.40943732
O     -2.88500566    -2.13306121     0.89087331
C     -1.16287729    -0.65051043     0.26255702
C      0.00326110    -1.31385603     0.60641989
C      1.16587728    -0.61693534     0.32247797
C      2.56135922    -0.99205172     0.54076144
O      2.90098016    -2.04754089     1.03879251
N      3.32840039     0.04840041     0.08549905
C      4.78975453     0.04646466     0.13369979
C      5.39823997     0.11439147    -1.26657410
C      5.32419046     1.17012342     1.02105845
C      2.55646209     1.06665016    -0.40937499
O      2.88500542     2.13307458    -0.89084472
C      1.16287488     0.65054073    -0.26249084
C     -0.00326366     1.31388643    -0.60635409
C     -1.16587986     0.61696528    -0.32241314
C     -2.56136164     0.99207765    -0.54070571
O     -2.90098141     2.04754543    -1.03878161
H     -4.88623544    -1.11250469    -2.02362789
H     -6.41217731    -1.09852162    -1.12259838
H     -5.09031086    -2.15862671    -0.61309697
H     -5.10458050     0.90392614    -0.58232640
H     -5.01328605     0.69551820     1.89543464
H     -5.16748753    -1.06093911     1.76623156
H     -6.48812429    -0.01784567     1.21977715
H      0.00569370    -2.29783402     1.06055534
H      5.10457474    -0.90386348     0.58246300
H      6.48806294     0.01766716    -1.21981548
H      5.01318715    -0.69576703    -1.89531774
H      5.16741344     1.06070620    -1.76634424
H      5.09040730     2.15869315     0.61284576
H      4.88632889     1.11276464     2.02351875
H      6.41224419     1.09860276     1.12244656
H     -0.00569610     2.29786747    -1.06048652
