56
cfg8 ip=3.5 off=1.6 anti E=-31287.6391 fmax=0.045
C        4.93744278      -0.01190077       0.09170750      -0.01676675       0.00801134      -0.00298254
N        3.47232300      -0.07293861       0.19321590      -0.01585269       0.00234112      -0.03753858
C        2.78607233      -1.18519445      -0.16870186      -0.01450638       0.01047662      -0.00038863
C        1.42580659      -1.23008672      -0.14154713       0.00485910      -0.00708578      -0.02020175
C        0.64681352      -0.09965078       0.24490060       0.01031460      -0.01444186       0.03676450
C       -0.77442660      -0.08504873       0.18103172       0.01096935       0.00780433      -0.02313815
C       -1.52774590      -1.18661442      -0.33264172      -0.00514188      -0.01680944      -0.00352606
C       -2.87069140      -1.10932555      -0.47740649      -0.00498826       0.00918039      -0.02730681
N       -3.56654741       0.01794394      -0.15352396       0.00916010       0.00197798      -0.00287585
C       -5.00104413       0.07819781      -0.42026854      -0.00400781       0.00830777      -0.01364285
C       -2.88339023       1.10437714       0.30078387      -0.00229580       0.02324705      -0.01557437
C       -1.53927400       1.08633091       0.46670689       0.01242938       0.00355798       0.01707282
C        1.41897444       1.03440205       0.64312736      -0.00699093       0.02514820      -0.01748441
C        2.77637488       1.02279757       0.59572606       0.01099959      -0.00105270      -0.01315118
H        5.30212492      -0.91318865      -0.39332425      -0.02420541       0.00909901       0.01866381
H        5.22325329       0.84898544      -0.50943125       0.00642720      -0.00906892       0.00500990
H        5.38721634       0.07098919       1.08071541      -0.02875682      -0.00342810      -0.00539775
H        3.38102931      -2.02591150      -0.49838920      -0.01665950       0.01305351       0.01485196
H        0.96547488      -2.14776749      -0.47106202      -0.01845602      -0.01965927       0.00319479
H       -1.05224091      -2.10771325      -0.63114099       0.00361318      -0.00787767      -0.01291982
H       -3.45412110      -1.92325987      -0.88495894      -0.01099645      -0.00154827      -0.01367016
H       -5.52246363      -0.68647859       0.15472339      -0.00111834      -0.00395856      -0.01672198
H       -5.37695650       1.05830994      -0.14028219      -0.01326533      -0.00560663       0.00761998
H       -5.18795229      -0.07994326      -1.48088391      -0.03462397       0.00817364      -0.01771884
H       -3.47180240       1.98731098       0.50492405      -0.01573034       0.00206854      -0.02106375
H       -1.07438807       1.99333193       0.82013812      -0.00409073       0.02412578      -0.01021142
H        0.95297681       1.96047362       0.94133550      -0.01965819       0.00067801       0.01549700
H        3.36926342       1.89339115       0.84551778      -0.02570914      -0.02778809       0.00610168
C       -6.70566699      -1.17155319       3.08511185       0.02060186      -0.00552649       0.00161167
N       -5.24372528      -1.09383758       2.94934950       0.01607859       0.00147894       0.02756809
C       -4.55948455       0.01680412       3.32055800       0.02054829      -0.01546816       0.01161271
C       -3.20004195       0.06608698       3.29574265      -0.00743296       0.00420616       0.01612073
C       -2.41655119      -1.06081220       2.90235492      -0.00592398       0.01369285      -0.04081434
C       -0.99583961      -1.07721641       2.95695825      -0.01157639      -0.00581917       0.02727798
C       -0.24330060       0.02411641       3.47081967      -0.00311023       0.02244898      -0.00313955
C        1.10118864      -0.04463776       3.59805107       0.00644101      -0.00312423       0.02681636
N        1.80236680      -1.16514237       3.25704929      -0.00940637      -0.00458365      -0.00652465
C        3.23466970      -1.23129074       3.53253552      -0.00053919      -0.00686378       0.01406309
C        1.12058989      -2.25540335       2.80874991      -0.01175539      -0.01596321       0.02367617
C       -0.22543998      -2.24423226       2.65675028      -0.00401166      -0.00189421      -0.00859627
C       -3.18644801      -2.19367362       2.49638034       0.00527554      -0.01666204      -0.00514759
C       -4.54466673      -2.18548965       2.53953297      -0.00029072       0.00255638       0.00805944
H       -7.09652594      -0.19056666       3.34110269       0.02755147      -0.01199900      -0.01534667
H       -7.15413386      -1.50014723       2.14865450       0.03141705       0.00281651       0.00453805
H       -6.96466402      -1.87405103       3.87576386      -0.00557520       0.01041634      -0.00610683
H       -5.15672404       0.85148795       3.66163725       0.01945371      -0.01465798      -0.01218291
H       -2.74485577       0.98242023       3.63683673       0.02355266       0.01137179      -0.01094936
H       -0.72077983       0.94320945       3.77245745       0.00175785       0.01373687       0.02435047
H        1.68430456       0.77688991       3.99039069       0.00805053      -0.00949679       0.01897429
H        3.40964587      -1.31792639       4.60405261       0.03966712      -0.01217162       0.01643339
H        3.65678689      -2.09954546       3.03292138       0.00845368       0.00705584      -0.00239992
H        3.72211584      -0.33037348       3.16232778      -0.00135907      -0.00153481       0.01587054
H        1.71215985      -3.13618783       2.60239194       0.01463885       0.00036755       0.02045296
H       -0.68756654      -3.15219778       2.30209310      -0.00489598      -0.01851537       0.01769065
H       -2.71584605      -3.11198750       2.18248971       0.01373982      -0.00822279      -0.02143878
H       -5.13559489      -3.05042761       2.26686140       0.02369734       0.02342913       0.00826883
