14
bm_2_3_dichloro_5_6_dicyano_1_4_benzoquinone_ddq conf 0 ff=MMFF E=-34.996
N     -2.69898583     2.35996757    -0.37242691
C     -1.78612490     1.66388213    -0.21361241
C     -0.69945221     0.76411539    -0.01233301
C     -0.89375313    -0.54527854     0.20400651
C     -2.19870668    -1.11650871     0.24576420
N     -3.27755017    -1.53899217     0.27176026
C      0.25166788    -1.46257590     0.41081827
O      0.06150668    -2.65725707     0.60748567
C      1.62064400    -0.88802196     0.37145781
Cl     2.92058137    -2.00508377     0.61945076
C      1.81418079     0.41622538     0.15597187
Cl     3.38708853     1.13872033     0.10004309
C      0.66700048     1.33635483    -0.05162265
O      0.83190319     2.53445251    -0.25029733
