26
bm_10_methylphenothiazine conf 0 ff=MMFF E=64.350
C     -0.11228811     2.15202732    -0.86638297
N     -0.03979615     0.78742496    -0.33711452
C      1.24356173     0.27222340    -0.02659171
C      2.33988625     1.12087252     0.23598463
C      3.60700515     0.61974740     0.55330645
C      3.81277554    -0.75016267     0.62479912
C      2.74805512    -1.61431657     0.38740646
C      1.47119385    -1.11560086     0.07317624
S      0.19622602    -2.32475095    -0.22799727
C     -1.27820954    -1.33031827    -0.10378929
C     -2.49211497    -2.02355356     0.05013278
C     -3.69910411    -1.33681057     0.14128508
C     -3.70019722     0.04908316     0.08292802
C     -2.49581320     0.74322210    -0.07531695
C     -1.25704705     0.07693608    -0.18756158
H     -0.94626914     2.27941922    -1.56706824
H     -0.22128044     2.87665961    -0.05197424
H      0.77437208     2.41376286    -1.45633792
H      2.22433872     2.20087509     0.22691209
H      4.42719301     1.30503128     0.75132629
H      4.79392940    -1.14689246     0.87049897
H      2.91713202    -2.68720284     0.44975636
H     -2.49983320    -3.11024614     0.10112634
H     -4.63033537    -1.88288518     0.26390185
H     -4.63494431     0.59731501     0.16796113
H     -2.54843607     1.82814006    -0.08036710
