14
SMD(acetonitrile)-opt r2scan/def2-svp q=1 m=2
C 1.04370343 -0.00611627 0.00002263
C 0.34246033 1.23976808 0.00001898
C -1.02749405 1.23747718 0.00000680
C -1.72321562 -0.01743932 -0.00000183
C -1.02160166 -1.26743329 0.00000153
C 0.34788717 -1.25829539 0.00001355
H 0.91601506 -2.19071618 0.00001632
H -1.58720047 -2.20394474 -0.00000551
O -3.02428024 0.04211026 -0.00001324
H -3.43057631 -0.85536615 -0.00001816
H -1.60986436 2.16178443 0.00000379
H 0.90419285 2.17593883 0.00002591
C 2.46054604 -0.00430769 0.00003639
N 3.62879842 -0.00325617 0.00004728
