39
SMD(acetonitrile)-opt r2scan/def2-svp q=0 m=1
C 5.10887768 0.71427182 -0.50518709
C 3.69357905 0.73561402 0.00002306
C 2.66001307 0.09402508 -0.70103057
C 1.34785822 0.08672928 -0.21532449
C 1.02848251 0.72464237 0.99046958
C -0.37780504 0.74861862 1.56176969
C 2.05624952 1.37141236 1.69539292
C 3.36439489 1.37698428 1.20807769
N -1.40734881 0.06697955 0.79155110
C -2.01584431 0.75746969 -0.27240143
C -1.44538908 1.93049564 -0.80602140
C -2.06354206 2.62170242 -1.85304037
C -3.24829336 2.14693060 -2.41838572
C -3.82119886 0.97543181 -1.91226870
C -3.22819141 0.30072852 -0.84012354
S -4.09600144 -1.05857896 -0.10571836
C -2.71854270 -1.99022723 0.50635451
C -2.85278832 -3.37557849 0.64487206
C -1.85174485 -4.12748408 1.26887471
C -0.70562832 -3.47894805 1.73204574
C -0.54851190 -2.09960979 1.56217750
C -1.55291321 -1.32321157 0.95027760
H 5.65537001 1.62440139 -0.21368113
H 5.14526646 0.61998354 -1.60116760
H 5.66484631 -0.14352861 -0.08675880
H 2.88445159 -0.40905718 -1.64785383
H 0.56471089 -0.42060852 -0.78743842
H -0.36920065 0.30745258 2.57203235
H -0.69957129 1.79409525 1.69831144
H 1.82598471 1.88049594 2.63812322
H 4.14893152 1.89092777 1.77432580
H -0.50374096 2.31051887 -0.40677657
H -1.59647866 3.53514130 -2.23292225
H -3.72874120 2.67874289 -3.24423920
H -4.75421461 0.58804669 -2.33334222
H -3.76423734 -3.86005282 0.28093601
H -1.97361457 -5.20735155 1.39024533
H 0.09105479 -4.04617608 2.22231256
H 0.37251383 -1.62732867 1.90732885
