13
SMD(acetonitrile)-opt r2scan/def2-svp q=0 m=1
C 0.50949699 0.08287173 -0.00003988
C -0.23398658 1.27700398 -0.00001957
C -1.63031938 1.22954953 0.00002456
C -2.30072766 0.00083777 0.00004860
C -1.55835050 -1.18521950 0.00002801
C -0.16063758 -1.15302484 -0.00001612
H 0.40743284 -2.08857177 -0.00003169
H -2.06866751 -2.15361276 0.00004630
H -3.39409674 -0.03215544 0.00008318
H -2.19724220 2.16578426 0.00004009
H 0.27903188 2.24403686 -0.00003798
S 2.27946503 0.20974792 -0.00009472
H 2.53045251 -1.12016187 -0.00010105
