35
SMD(acetonitrile)-opt r2scan/def2-svp q=0 m=2
C 5.52758641 0.00733430 -1.15244874
N 4.17348996 0.14768959 -0.63159542
C 3.82136564 -0.54106117 0.50816691
C 2.65886787 -0.31431237 1.17868068
C 1.77330055 0.79116261 0.73938827
C -1.54918577 0.46104588 -0.02357991
C -1.78128215 -0.81390124 -0.72047407
C -3.02151804 -1.35773675 -0.82665686
N -4.12231949 -0.82466870 -0.20393007
C -5.43300625 -1.43480210 -0.38602782
C -3.95518648 0.29976358 0.55098567
C -2.74918004 0.91837988 0.69699899
C 1.91495921 1.04450198 -0.76551086
C 3.30945473 1.03755409 -1.20117852
F -1.15414936 1.47596995 -1.02546991
P -0.05522466 0.52452505 1.12100612
F 1.18867379 -0.05212517 -1.37409679
F 0.13331793 -1.12996976 1.07426181
F 2.16696409 1.99142939 1.37456500
F -0.27148580 2.17293165 1.27184031
F -0.40293827 0.38743218 2.68573342
H 5.83984091 -1.04373588 -1.08253603
H 6.23395333 0.62955522 -0.57903095
H 5.54598463 0.31644530 -2.20495528
H 4.54756460 -1.28748980 0.83973737
H 2.42852287 -0.88699472 2.07760169
H -0.94120020 -1.30444278 -1.21335511
H -3.20284058 -2.27251736 -1.39713766
H -6.12038614 -1.04564169 0.37509884
H -5.35619359 -2.52543065 -0.27263666
H -5.83696827 -1.20592203 -1.38516211
H -4.85292464 0.67318089 1.05048330
H -2.68367125 1.80509487 1.33020194
H 1.38825460 1.96134225 -1.06468869
H 3.65231101 1.59037622 -2.07559276
