7
pf6/anion q=-1 m=1 E=-25601.147994eV conf=1 model=uma-s-1p2p1
F       -0.09677892      -1.37435499       0.83116804      -0.00046778      -0.00228946       0.01132298
P       -0.00000000       0.00000002       0.00000006      -0.01205057      -0.00359872      -0.00049753
F        1.13815632       0.52883908       1.00696964       0.00880540      -0.00447909      -0.01015578
F        1.13326558      -0.64848906      -0.94033458       0.00821800      -0.00103922       0.00427432
F       -1.13326542       0.64848846       0.94033532       0.01211520       0.00536097       0.00849744
F        0.09677894       1.37435469      -0.83116860      -0.01186099       0.00574756      -0.01364316
F       -1.13815651      -0.52883821      -1.00696985      -0.00475889       0.00029740       0.00020221
