35
conf 0 ff=MMFF E=90.733 Rg=4.60 smiles=Cc1ccc(COC2=C(Br)C(=O)c3ccccc3C2=O)cc1
C      6.49212771     0.17709693     0.19566045
C      5.02218419     0.32683670    -0.06158923
C      4.54852950     0.55107146    -1.35894225
C      3.17722854     0.65572718    -1.60564460
C      2.25490427     0.53280645    -0.55903086
C      0.77264988     0.63801488    -0.81976952
C      2.73041701     0.28665624     0.73616587
C      4.10145463     0.18111997     0.98156331
O     -3.17631310    -2.45397478     2.08685077
C     -2.84977664    -1.69153253     1.18361446
C     -1.44863638    -1.58690470     0.68758561
Br    -0.19136740    -2.72455779     1.50444705
C     -1.10056907    -0.71915358    -0.27741878
O      0.21446871    -0.67588505    -0.72889708
C     -2.13104142     0.15448374    -0.91854681
O     -1.84635694     0.94617629    -1.81064769
C     -3.52498527     0.05222759    -0.45478193
C     -4.50982893     0.86085057    -1.04135843
C     -5.83489383     0.77698806    -0.61130248
C     -6.18149377    -0.11218083     0.40368080
C     -5.20308029    -0.91766016     0.98813128
C     -3.87077152    -0.83517994     0.55688036
H      6.74805698     0.51323665     1.20597680
H      6.78634827    -0.87122113     0.08617242
H      7.07509831     0.78376116    -0.50528934
H      5.24536589     0.64237306    -2.18912899
H      2.83465979     0.82710820    -2.62384138
H      0.59787258     1.03940129    -1.82384302
H      0.33336332     1.32404554    -0.08332351
H      2.03331056     0.16484419     1.56202968
H      4.44568604    -0.02041134     1.99345793
H     -4.24995521     1.55872137    -1.83627068
H     -6.59616005     1.40524396    -1.06913915
H     -7.21384778    -0.17994003     0.74061086
H     -5.48464859    -1.61018960     1.78052649
