35
conf 8 ff=MMFF E=90.733 Rg=4.60 smiles=Cc1ccc(COC2=C(Br)C(=O)c3ccccc3C2=O)cc1
C      6.48798971    -0.41085033    -0.08361337
C      5.02708150    -0.10163254    -0.22313262
C      4.58267010     1.22477637    -0.25304423
C      3.21905620     1.51444418    -0.34756261
C      2.27517915     0.48170958    -0.40877564
C      0.80093313     0.78774201    -0.50403983
C      2.72094529    -0.84600870    -0.35683699
C      4.08429888    -1.13451815    -0.26125342
O     -3.27491385    -2.47627925     2.01323817
C     -2.91341093    -1.47315676     1.40757052
C     -1.50136601    -0.99744978     1.41141721
Br    -0.28746845    -2.00778584     2.43509573
C     -1.11463032     0.08253591     0.71181405
O      0.20903927     0.50660075     0.76748642
C     -2.11151103     0.87347484    -0.07354990
O     -1.79132150     1.87104523    -0.71072815
C     -3.51571982     0.42984367    -0.07457580
C     -4.46958433     1.15584313    -0.80322817
C     -5.80388124     0.74685585    -0.81570722
C     -6.19057985    -0.38584997    -0.10269397
C     -5.24302855    -1.10912182     0.62304465
C     -3.90150396    -0.69932306     0.63723437
H      6.75821033    -0.47174934     0.97506239
H      6.73380406    -1.36209866    -0.56728593
H      7.09833080     0.36291055    -0.56111178
H      5.29646347     2.04375133    -0.19911867
H      2.89930950     2.55409669    -0.36586163
H      0.65431986     1.84542651    -0.74823428
H      0.36537806     0.17616730    -1.30543232
H      2.00620836    -1.66543637    -0.37995832
H      4.40508290    -2.17265488    -0.21215735
H     -4.17826447     2.04343363    -1.36336993
H     -6.54104092     1.31290781    -1.38141729
H     -7.23021905    -0.70672141    -0.11031989
H     -5.55585632    -1.99292847     1.17783381
