35
conf 5 ff=MMFF E=90.733 Rg=4.60 smiles=Cc1ccc(COC2=C(Br)C(=O)c3ccccc3C2=O)cc1
C      6.45460254    -0.65979672     0.53056964
C      5.01461539    -0.42409608     0.18384789
C      4.64648248     0.66404395    -0.61501122
C      3.30221027     0.90534168    -0.90995048
C      2.30163949     0.06477233    -0.40647179
C      0.84784808     0.32375201    -0.71558614
C      2.67090180    -1.01190784     0.41123314
C      4.01497150    -1.25163471     0.70637519
O     -3.42416282    -0.73627638     3.05662448
C     -3.00208680    -0.27648595     2.00105820
C     -1.56537939     0.05526293     1.78658585
Br    -0.41796723    -0.23831583     3.24928710
C     -1.11309117     0.52316777     0.61105383
O      0.23209137     0.84602351     0.46519081
C     -2.05796616     0.76415651    -0.52265667
O     -1.67723219     1.20312166    -1.60247920
C     -3.48504865     0.45995794    -0.32388212
C     -4.39105324     0.67835165    -1.37236744
C     -5.74629594     0.39301668    -1.20008735
C     -6.20163702    -0.11038262     0.01654725
C     -5.30175619    -0.32794556     1.06084211
C     -3.93926344    -0.04127923     0.88977701
H      6.64928145    -1.72608495     0.68664386
H      7.11117940    -0.32551981    -0.27960936
H      6.71365759    -0.11524652     1.44373918
H      5.40525755     1.33519344    -1.01117548
H      3.04217303     1.75996219    -1.53079786
H      0.76322655     1.05669606    -1.52518681
H      0.38387357    -0.61707588    -1.04044258
H      1.91094816    -1.66577146     0.83287365
H      4.27591562    -2.08744353     1.35164106
H     -4.04591656     1.07250220    -2.32733844
H     -6.44616877     0.56439077    -2.01535130
H     -7.25773663    -0.33330345     0.15376009
H     -5.66811364    -0.72114676     2.00844194
