35
conf 3 ff=MMFF E=90.733 Rg=4.60 smiles=Cc1ccc(COC2=C(Br)C(=O)c3ccccc3C2=O)cc1
C      6.44924825    -0.65382901     0.42979399
C      5.00826145    -0.24301280     0.36558446
C      4.64526784     0.98426293    -0.19990731
C      3.30077110     1.35310414    -0.29246405
C      2.29492803     0.49800700     0.17473927
C      0.84100205     0.88733513     0.07152459
C      2.65947840    -0.74009672     0.72103345
C      4.00379905    -1.10834570     0.81211997
O     -3.39385472    -2.94146836    -0.93321536
C     -2.97959408    -1.79391577    -0.80956571
C     -1.54121635    -1.43771131    -0.96567260
Br    -0.37822576    -2.85153420    -1.40247287
C     -1.09828434    -0.18141597    -0.78984403
O      0.24940375     0.11016833    -0.97354944
C     -2.05501904     0.92072228    -0.46409881
O     -1.68273665     2.07904461    -0.31125114
C     -3.48358210     0.59173101    -0.32414411
C     -4.40061443     1.60867641    -0.01961981
C     -5.75743490     1.31236609     0.11826626
C     -6.20337754     0.00284481    -0.04676118
C     -5.29251464    -1.01006910    -0.35008742
C     -3.92840835    -0.71413038    -0.48958991
H      6.72880831    -1.18273627    -0.48651952
H      7.09949917     0.21944891     0.54723009
H      6.63031702    -1.31055084     1.28721137
H      5.40833925     1.66173083    -0.57658469
H      3.04485121     2.31140119    -0.73925381
H      0.75608074     1.95161441    -0.17325731
H      0.35870543     0.70807382     1.04168890
H      1.89583213    -1.43134243     1.07012660
H      4.26123883    -2.07874084     1.23056982
H     -4.06286635     2.63601743     0.11053417
H     -6.46586068     2.10388944     0.35378743
H     -7.26067577    -0.23092116     0.05973782
H     -5.65156630    -2.03061790    -0.47787875
