35
conf 7 ff=MMFF E=90.733 Rg=4.60 smiles=Cc1ccc(COC2=C(Br)C(=O)c3ccccc3C2=O)cc1
C      6.46397833     0.80194724    -0.23812536
C      5.02041647     0.50019049     0.03465206
C      4.03353870     1.45457724    -0.23434298
C      2.68585773     1.16186789    -0.01258412
C      2.30008261    -0.09392181     0.47568061
C      0.84239583    -0.40741726     0.70590490
C      3.28770433    -1.05555960     0.72275758
C      4.63560972    -0.76140163     0.50162760
O     -3.41095406     1.71869669    -2.60948018
C     -2.99642779     0.97814644    -1.72430772
C     -1.56492876     0.57926877    -1.61524011
Br    -0.41232488     1.25046375    -2.94311014
C     -1.12040026    -0.20280416    -0.61717533
O      0.21975240    -0.57281505    -0.57124557
C     -2.06949194    -0.73515606     0.40848931
O     -1.69601757    -1.46184455     1.32287733
C     -3.49178115    -0.36722584     0.30683577
C     -4.40161488    -0.85478986     1.25675436
C     -5.75236799    -0.51336241     1.17507893
C     -6.19939876     0.31425224     0.14738344
C     -5.29570579     0.79993986    -0.79872324
C     -3.93772077     0.45746712    -0.71860798
H      6.71545729     0.52852790    -1.26745594
H      7.11499151     0.24646285     0.44513145
H      6.67463936     1.86672047    -0.09284301
H      4.30731533     2.43271187    -0.62336551
H      1.93599120     1.91795536    -0.23366077
H      0.74635095    -1.33481163     1.28082833
H      0.39222264     0.41304196     1.28049864
H      3.01456934    -2.04500400     1.08310062
H      5.38405414    -1.52701516     0.69344796
H     -4.06298560    -1.50329080     2.06373687
H     -6.45524201    -0.89404381     1.91325057
H     -7.25199115     0.58168005     0.08104765
H     -5.65557449     1.44578555    -1.59881601
