35
conf 9 ff=MMFF E=90.733 Rg=4.60 smiles=Cc1ccc(COC2=C(Br)C(=O)c3ccccc3C2=O)cc1
C      6.49907701     0.14525640     0.16094869
C      5.02735263    -0.12551615     0.26116887
C      4.49626237    -0.74635395     1.39706160
C      3.12106973    -0.96760420     1.50740600
C      2.25196494    -0.56690014     0.48502010
C      0.76540593    -0.79671975     0.60101388
C      2.78362260     0.07424451    -0.64214755
C      4.15843364     0.29593125    -0.75100566
O     -3.17820353     2.88986251    -1.51095944
C     -2.86127049     1.90231737    -0.85668094
C     -1.48568036     1.70129720    -0.32046476
Br    -0.24809623     3.07479992    -0.67277392
C     -1.14504226     0.59553994     0.36264962
O      0.14386041     0.46345999     0.86892573
C     -2.16096207    -0.46562079     0.64194714
O     -1.88360367    -1.47910208     1.27408083
C     -3.53100352    -0.27635359     0.13619863
C     -4.50190537    -1.25756626     0.38606048
C     -5.80412189    -1.09361858    -0.08841333
C     -6.14171406     0.04766801    -0.81259664
C     -5.17717454     1.02502348    -1.06180731
C     -3.86787021     0.86227845    -0.58529883
H      7.07442952    -0.62401315     0.68670934
H      6.82724447     0.13822165    -0.88379392
H      6.73066128     1.12131743     0.59821512
H      5.15065816    -1.05948858     2.20751595
H      2.73309524    -1.44945745     2.40224460
H      0.40407337    -1.24357067    -0.33478851
H      0.55776041    -1.48782166     1.42508080
H      2.12709688     0.41514463    -1.43939542
H      4.54611758     0.80467852    -1.63072849
H     -4.24897388    -2.15321823     0.95199238
H     -6.55467826    -1.85646879     0.10796830
H     -7.15629511     0.17827334    -1.18331858
H     -5.45159072     1.91407943    -1.62841466
