35
conf 2 ff=MMFF E=90.733 Rg=4.60 smiles=Cc1ccc(COC2=C(Br)C(=O)c3ccccc3C2=O)cc1
C     -6.45359862     0.70418464    -0.22844616
C     -5.01398281     0.43602575     0.09549159
C     -4.64749675    -0.72039728     0.79271969
C     -3.30360104    -0.98931676     1.06457874
C     -2.30176972    -0.10813724     0.63908342
C     -0.84838191    -0.39611546     0.92345109
C     -2.66939836     1.03857001    -0.07795763
C     -4.01309482     1.30594444    -0.35016094
O      3.42544395     0.99385744    -2.73786307
C      3.00261663     0.44119525    -1.72813069
C      1.56539793     0.09358762    -1.54439634
Br     0.41851824     0.51982712    -2.97451157
C      1.11233554    -0.47791824    -0.41590427
O     -0.23334003    -0.81060667    -0.29969170
C      2.05677653    -0.82175778     0.69132956
O      1.67531258    -1.35587841     1.72712102
C      3.48433315    -0.50302922     0.52072451
C      4.38994930    -0.81664145     1.54510958
C      5.74563561    -0.51898048     1.39919402
C      6.20180830     0.09158319     0.23297638
C      5.30231613     0.40397982    -0.78731332
C      3.93937647     0.10511515    -0.64272650
H     -7.11073700     0.29895996     0.54820541
H     -6.71334500     0.24481572    -1.18711325
H     -6.64673385     1.78049862    -0.28745478
H     -5.40727728    -1.42349889     1.12664584
H     -3.04485308    -1.89693275     1.60562663
H     -0.38302271     0.51086182     1.33185521
H     -0.76490064    -1.19925818     1.66359339
H     -1.90845887     1.72674894    -0.43882802
H     -4.27277277     2.19702870    -0.91723662
H      4.04416155    -1.29493280     2.46059458
H      6.44520481    -0.76438078     2.19557806
H      7.25825582     0.32437424     0.11637114
H      5.66932275     0.88062398    -1.69554495
