35
conf 1 ff=MMFF E=90.733 Rg=4.60 smiles=Cc1ccc(COC2=C(Br)C(=O)c3ccccc3C2=O)cc1
C     -6.27847149     0.64060724    -1.70203706
C     -4.82373505     0.76129208    -1.35778140
C     -4.23348669    -0.12673082    -0.45215285
C     -2.87119203    -0.03626700    -0.15707442
C     -2.07268534     0.93997601    -0.76828017
C     -0.60019448     1.02812016    -0.45184413
C     -2.66086787     1.81328906    -1.69162046
C     -4.02389047     1.72266777    -1.98528461
O      2.66360218    -3.61486699     0.72863213
C      2.52795117    -2.41873808     0.49485309
C      1.32754533    -1.86556014    -0.19304592
Br     0.02506848    -3.11591561    -0.72446269
C      1.17735808    -0.54775820    -0.40802962
O      0.05286973    -0.07901277    -1.07947133
C      2.24333956     0.41438991     0.00924072
O      2.14094980     1.62072284    -0.18554968
C      3.44595471    -0.11523030     0.67394251
C      4.46014995     0.76750385     1.07400330
C      5.60495733     0.28110266     1.70693975
C      5.74173228    -1.08515829     1.94267037
C      4.73390892    -1.96484276     1.54502890
C      3.58271545    -1.47791795     0.90824990
H     -6.40783906    -0.04415689    -2.54577032
H     -6.69873543     1.61581960    -1.96955455
H     -6.85181604     0.26355470    -0.84860996
H     -4.83036294    -0.89932892     0.02729384
H     -2.43342531    -0.74071293     0.54646046
H     -0.18927676     1.96417186    -0.84525445
H     -0.47311196     1.01698582     0.63888400
H     -2.06033492     2.56749847    -2.19558116
H     -4.45669633     2.40696007    -2.71161039
H      4.36387008     1.83739622     0.89371644
H      6.38982829     0.96872575     2.01515628
H      6.63338062    -1.46715181     2.43553244
H      4.85094021    -3.03143460     1.73332110
