35
conf 6 ff=MMFF E=90.733 Rg=4.60 smiles=Cc1ccc(COC2=C(Br)C(=O)c3ccccc3C2=O)cc1
C      6.30495765     1.19786484     1.04024530
C      4.92056685     0.66291233     0.82431429
C      4.72115411    -0.51549960     0.09675862
C      3.42997756    -0.99638578    -0.13538321
C      2.31474275    -0.30376880     0.35218446
C      0.91768166    -0.81399923     0.09916883
C      2.51576086     0.88782012     1.06207511
C      3.80691351     1.36828168     1.29268341
O     -3.61938059     2.68888711    -0.76578545
C     -3.09753543     1.57937712    -0.74474847
C     -1.62328944     1.38298197    -0.83535632
Br    -0.58748926     2.94339007    -1.02104247
C     -1.06497665     0.16241798    -0.77300941
O      0.31426814     0.02461304    -0.89016293
C     -1.92129984    -1.05696050    -0.64655386
O     -1.44181019    -2.18464281    -0.60088648
C     -3.38200995    -0.88456096    -0.57435420
C     -4.20638817    -2.01341425    -0.45624051
C     -5.59238279    -1.86623794    -0.38459910
C     -6.15982518    -0.59468084    -0.43036444
C     -5.34123144     0.52945842    -0.54820623
C     -3.94794170     0.38353967    -0.62085867
H      6.58415781     1.85826775     0.21353815
H      7.03323346     0.38251500     1.10384697
H      6.36463122     1.75980592     1.97827155
H      5.57153891    -1.06665805    -0.29845585
H      3.30190590    -1.91329279    -0.70663839
H      0.95792610    -1.84388438    -0.27168859
H      0.36104195    -0.80052424     1.04570656
H      1.66507415     1.45587304     1.43152565
H      3.93697369     2.30070578     1.83739093
H     -3.77327515    -3.01220644    -0.42055252
H     -6.22863817    -2.74417355    -0.29375992
H     -7.24009532    -0.47704864    -0.37515534
H     -5.79493700     1.51922696    -0.58390747
