35
conf 4 ff=MMFF E=90.733 Rg=4.60 smiles=Cc1ccc(COC2=C(Br)C(=O)c3ccccc3C2=O)cc1
C      6.47799481    -0.24129351     0.35665040
C      5.03031205    -0.04340677     0.01843353
C      4.60255925    -0.07441619    -1.31341299
C      3.24935197     0.07463683    -1.62788626
C      2.29911757     0.25237656    -0.61464514
C      0.83566577     0.40709214    -0.94707030
C      2.72701011     0.26145771     0.71992055
C      4.07991085     0.11128546     1.03330076
O     -3.40675464    -1.67257544     2.41153999
C     -3.00185695    -1.15280922     1.37728754
C     -1.58707350    -1.26319812     0.92298947
Br    -0.44195939    -2.28395045     2.01340874
C     -1.15101115    -0.65608662    -0.19354287
O      0.17214214    -0.81005010    -0.59428164
C     -2.09485712     0.12954574    -1.04683232
O     -1.72954645     0.68331627    -2.07811844
C     -3.50162768     0.23463244    -0.62425942
C     -4.40632463     0.96557812    -1.40854016
C     -5.74229305     1.07608317    -1.02026931
C     -6.17962239     0.45898235     0.14971759
C     -5.28103944    -0.26889975     0.93100030
C     -3.93793806    -0.38154767     0.54213425
H      6.68933855    -1.30692848     0.48810754
H      6.73953700     0.28816916     1.27887496
H      7.12183191     0.15233165    -0.43692513
H      5.32115307    -0.21887124    -2.11707854
H      2.94233416     0.04368405    -2.67107144
H      0.71402215     0.59049293    -2.02009772
H      0.43801364     1.26835375    -0.39383875
H      2.00578654     0.37530279     1.52597516
H      4.38629525     0.11141675     2.07693360
H     -4.07523533     1.45119031    -2.32560501
H     -6.44126204     1.64324007    -1.63151840
H     -7.22070367     0.54313238     0.45457341
H     -5.63327131    -0.74826709     1.84363945
