24
anthraquinone_parent/red2 q=-2 m=1 E=-18741.975295eV conf=0 model=uma-s-1p2p1
O       -0.13370999       2.66594160       0.83560478      -0.00073914       0.01470878       0.00461223
C       -0.07206729       1.43689208       0.45037583       0.00076506      -0.01524867      -0.00478644
C        1.16135719       0.75323277       0.19353239      -0.00709622       0.00050689       0.00705263
C        2.38326005       1.45916192       0.37224157      -0.00544786       0.00234208      -0.00395238
C        3.60004152       0.88249995       0.14983301      -0.00466226      -0.00026652       0.00293096
C        3.66827593      -0.47808363      -0.27704165      -0.00473333      -0.00025462      -0.00276364
C        2.51593951      -1.18656807      -0.45798619      -0.00503311      -0.00293225       0.00413061
C        1.23026730      -0.62016330      -0.23538905      -0.00719913      -0.00129657      -0.00679890
C        0.07206797      -1.43689641      -0.45037474      -0.00076166       0.01519813       0.00476417
O        0.13371056      -2.66594286      -0.83560307       0.00073066      -0.01466146      -0.00459495
C       -1.16140589      -0.75279485      -0.19494441       0.00746417      -0.00428316       0.00503873
C       -2.38323562      -1.45943137      -0.37136722       0.00520485       0.00041941      -0.00491206
C       -3.60002302      -0.88261817      -0.14945277       0.00476316      -0.00139756       0.00223741
C       -3.66829262       0.47820279       0.27666086       0.00454284       0.00192287      -0.00240010
C       -2.51596531       1.18684221       0.45711318       0.00533371       0.00017125       0.00472649
C       -1.23021868       0.61972104       0.23680341       0.00681870       0.00507120      -0.00529053
H        2.29344755       2.48946072       0.69940287       0.00558092      -0.00104478      -0.00322403
H        4.51332652       1.45355608       0.29895758      -0.00193162       0.00071433      -0.00043031
H        4.63349640      -0.94461794      -0.45904461      -0.00183481      -0.00092104       0.00049582
H        2.52959193      -2.22110321      -0.78381497       0.00553179       0.00166234       0.00303179
H       -2.29323725      -2.49137991      -0.69325157      -0.00574988       0.00257868      -0.00169984
H       -4.51312886      -1.45534875      -0.29319596       0.00192778      -0.00029015      -0.00087521
H       -4.63369566       0.94641647       0.45328028       0.00189162       0.00050274       0.00080908
H       -2.52980235       2.22302101       0.77766042      -0.00536635      -0.00320198       0.00189852
