56
cfg6 ip=3.5 off=0.0 anti E=-31287.8216 fmax=0.046
C        4.96622690       0.02383461      -0.02745049       0.02729220       0.00209188      -0.00673364
N        3.50678927      -0.03438534       0.06677147      -0.03617603      -0.01200331       0.00813725
C        2.81804141      -1.14927743      -0.28509011      -0.03016998      -0.01838309      -0.02350415
C        1.46616039      -1.22227384      -0.19096877      -0.02167464      -0.00100493      -0.01869871
C        0.69295634      -0.11569222       0.27764649      -0.00602424       0.01499300      -0.01878616
C       -0.72561393      -0.09142200       0.21440700       0.00651438       0.00026167      -0.02392192
C       -1.48674884      -1.18155772      -0.31585720       0.01417657      -0.00520337      -0.00931864
C       -2.81857167      -1.07120070      -0.53417125       0.01569675      -0.01406142      -0.01608480
N       -3.50512741       0.06920533      -0.25200613       0.03744743       0.00310657       0.01934408
C       -4.94770316       0.13028321      -0.49161373      -0.02663872       0.00306966      -0.00901788
C       -2.82368674       1.13258785       0.24407837       0.02608277       0.02846756      -0.00537574
C       -1.48880665       1.08625726       0.48387578       0.02813415       0.01203415      -0.00906659
C        1.46320483       1.03917826       0.62669190      -0.00677017       0.01086284      -0.00689755
C        2.81218795       1.04910606       0.50839112      -0.02261707       0.01925450      -0.00384062
H        5.33652356      -0.92019677      -0.41467296       0.01727986      -0.00756229      -0.02341448
H        5.27159099       0.82566060      -0.69591484      -0.01222044       0.01503251      -0.02184149
H        5.39280831       0.19567677       0.95937613       0.03938906       0.01377487      -0.00809493
H        3.40461029      -1.97366517      -0.66496594       0.02690089      -0.00315690       0.01083045
H        1.00256389      -2.14181423      -0.51436682       0.00770521       0.01748945      -0.01792821
H       -1.02219630      -2.11704750      -0.58913644      -0.00621480       0.01765129      -0.01681483
H       -3.39453219      -1.87770965      -0.96732913      -0.02819137       0.00236144       0.01044591
H       -5.45568876      -0.60907864       0.12535941      -0.03825274      -0.00409863      -0.01833723
H       -5.31089287       1.11956106      -0.23149041      -0.01516967       0.02128302      -0.01474810
H       -5.16670574      -0.06377028      -1.53916427       0.01469396       0.00164557      -0.02528486
H       -3.40001633       2.02967402       0.42053239      -0.02692149      -0.00419286       0.00707291
H       -1.02781616       1.98763919       0.85816083      -0.00555085      -0.00210362      -0.02604627
H        0.99536770       1.95118648       0.96569007       0.00714686      -0.00236935      -0.02314136
H        3.39842588       1.92897223       0.73616112       0.02849106      -0.00863018       0.00976433
C       -5.13205269      -1.23841804       3.25824011      -0.02387549      -0.00207065       0.00674405
N       -3.67720062      -1.16157056       3.11370859       0.03144718       0.01271113      -0.01429870
C       -2.99620223      -0.03950965       3.46469366       0.02516570       0.01750877       0.02096902
C       -1.64606976       0.03965664       3.37779251       0.01664110       0.00571419       0.01121624
C       -0.86203736      -1.06726308       2.92352704       0.00888531      -0.01242605       0.02038544
C        0.55513100      -1.07604432       2.99184883      -0.00958391      -0.00278713       0.02238172
C        1.30542472       0.01596410       3.53166692      -0.01400899       0.00661475       0.01591213
C        2.64000405      -0.08370123       3.74520943      -0.01280247       0.01150728       0.02070121
N        3.33769389      -1.21278537       3.44912183      -0.03241115      -0.00083209      -0.02118227
C        4.77055311      -1.29139770       3.73907801       0.02321093      -0.00324816       0.00886889
C        2.66412709      -2.28189943       2.94967386      -0.02054117      -0.02625309       0.00331854
C        1.33047380      -2.24526319       2.71214385      -0.02306134      -0.01210846       0.00404192
C       -1.62235410      -2.22998245       2.58186036       0.00644193      -0.01545348       0.00851700
C       -2.97327009      -2.24515828       2.68998845       0.01914823      -0.02102442       0.01049970
H       -5.53524863      -0.23173996       3.31837894      -0.03151736       0.00410109       0.01844508
H       -5.55575257      -1.73815297       2.38998777      -0.03059551      -0.02914024       0.01781912
H       -5.40332976      -1.78823390       4.15767812       0.01024907      -0.00633282       0.01803728
H       -3.58972125       0.78265683       3.83944433      -0.03013332      -0.00397084      -0.01174097
H       -1.18952534       0.96513844       3.69480151      -0.01263275      -0.01408579       0.01198601
H        0.83367630       0.94589197       3.81063451      -0.00173045      -0.01829541       0.01937347
H        3.21043065       0.72727493       4.17701500       0.02078613       0.00079141      -0.00901246
H        4.94252665      -1.44783161       4.80249960      -0.01187886      -0.00602584       0.01665947
H        5.19948512      -2.11867954       3.18119235       0.02998860      -0.01604033       0.01456627
H        5.25336452      -0.36737499       3.42898418       0.02753137       0.01050986       0.03501094
H        3.24776399      -3.17439812       2.77196408       0.03001758       0.01091560      -0.00434398
H        0.87717091      -3.14786540       2.33093284       0.01116727       0.00371433       0.01903239
H       -1.14811142      -3.14130721       2.25075420       0.00048851       0.00074745       0.02630090
H       -3.55385849      -3.12766173       2.45858847      -0.02075516       0.00464905      -0.00890529
