39
conf 0 ff=MMFF E=-27.407 Rg=4.67 smiles=Cc1ccc(Cn2c(=O)c3cc4c(=O)n(C)c(=O)c4cc3c2=O)cc1
C     -5.89249389    -2.04858213    -0.50394352
C     -4.92276265    -0.92466479    -0.28914629
C     -4.49452284    -0.59478061     1.00139817
C     -3.56756421     0.43090933     1.20011018
C     -3.05039237     1.14327748     0.11005742
C     -2.02672560     2.23311470     0.32211142
C     -3.45983962     0.79350408    -1.18345028
C     -4.38686642    -0.23242051    -1.38062740
N     -0.68157206     1.70253492     0.30218532
C     -0.03450213     1.22774336     1.40841106
O     -0.39863988     1.19827570     2.56767210
C      1.26244149     0.73107810     0.95006774
C      2.29435977     0.14935363     1.66719270
C      3.39246538    -0.20885566     0.90337465
C      4.65244505    -0.83291775     1.30680894
O      4.92842259    -1.12134519     2.45449781
N      5.39258734    -0.98764785     0.16743603
C      6.72615604    -1.53689798     0.14409737
C      4.75376125    -0.49184502    -0.93529196
O      5.13369849    -0.43036327    -2.08785944
C      3.45486794     0.00121583    -0.47755385
C      2.42367135     0.58466138    -1.19434663
C      1.32484199     0.94113899    -0.43078625
C      0.06681186     1.56879918    -0.83355158
O     -0.19328001     1.88958279    -1.97670547
H     -5.35124047    -2.99219473    -0.62295344
H     -6.50098745    -1.87400945    -1.39752378
H     -6.57977757    -2.13882089     0.34383273
H     -4.87838703    -1.13683195     1.86294815
H     -3.24415801     0.66486705     2.21341743
H     -2.12665086     2.99380935    -0.46129440
H     -2.20552155     2.72830897     1.28397468
H     -3.05151777     1.31328406    -2.04902621
H     -4.68596641    -0.48916829    -2.39455995
H      2.24629685    -0.01279231     2.73754014
H      6.92581549    -2.00128789    -0.82542115
H      7.43582807    -0.71887625     0.29947790
H      6.84656278    -2.26928702     0.94696046
H      2.47233505     0.74813064    -2.26446562
