39
conf 1 ff=MMFF E=-27.407 Rg=4.67 smiles=Cc1ccc(Cn2c(=O)c3cc4c(=O)n(C)c(=O)c4cc3c2=O)cc1
C     -5.87853017    -0.82681338    -1.94528331
C     -4.91650571    -0.30280230    -0.92077045
C     -4.38578512     0.98626269    -1.04062255
C     -3.46580287     1.46389899    -0.10452673
C     -3.05833513     0.65859325     0.96720257
C     -2.04218672     1.16413038     1.96343347
C     -3.57018560    -0.64160422     1.07037719
C     -4.49010157    -1.11788452     0.13352534
N     -0.69337930     0.86062862     1.53922355
C     -0.04258481    -0.30133806     1.84608217
O     -0.40607693    -1.23673799     2.53183011
C      1.25765255    -0.23792783     1.17961248
C      2.29391124    -1.15634807     1.16546309
C      3.39424693    -0.76763912     0.41998613
C      4.65875894    -1.46318317     0.18126217
O      4.93718623    -2.54530763     0.65878553
N      5.39957373    -0.65469610    -0.63572389
C      6.73699585    -0.96693990    -1.07666784
C      4.75685962     0.51741403    -0.92382777
O      5.13594023     1.46725552    -1.58006116
C      3.45466857     0.45222746    -0.26064777
C      2.41911696     1.37144110    -0.24493607
C      1.31807163     0.98187276     0.49901478
C      0.05551227     1.67913653     0.74105852
O     -0.20723802     2.77761118     0.29198550
H     -5.33082489    -1.30921962    -2.76065135
H     -6.48842379    -0.01668666    -2.35874529
H     -6.56497354    -1.55474960    -1.50016526
H     -4.68345898     1.62830242    -1.86682793
H     -3.06139039     2.46819113    -0.22270942
H     -2.14770072     2.24896565     2.08329081
H     -2.22405679     0.70726340     2.94351619
H     -3.24805485    -1.29701210     1.87833215
H     -4.86991103    -2.13254233     0.23178083
H      2.24738505    -2.10143412     1.69356562
H      7.44087849    -0.58519475    -0.33117689
H      6.93980944    -0.48463614    -2.03673894
H      6.86269234    -2.04967017    -1.16257508
H      2.46624685     2.31717269    -0.77182859
