39
conf 2 ff=MMFF E=-27.386 Rg=4.67 smiles=Cc1ccc(Cn2c(=O)c3cc4c(=O)n(C)c(=O)c4cc3c2=O)cc1
C     -5.87521893     1.83899401     1.11921377
C     -4.87958902     0.94117423     0.44663056
C     -4.45952622    -0.24120655     1.06572156
C     -3.55627392    -1.09362450     0.42675759
C     -3.07147597    -0.78708954    -0.85157807
C     -2.07303326    -1.69375630    -1.53101595
C     -3.49475093     0.39625648    -1.47098548
C     -4.39804218     1.24773270    -0.83082190
N     -0.71537258    -1.32441489    -1.19704880
C     -0.03953211    -1.81018811    -0.11302135
O     -0.38470392    -2.63363897     0.71168482
C      1.26207874    -1.14346663    -0.10183798
C      2.31920842    -1.27440862     0.78295227
C      3.41386040    -0.47849114     0.49000544
C      4.69513495    -0.35299303     1.18451782
O      4.99611031    -0.99438242     2.17172590
N      5.42105451     0.57968877     0.49671516
C      6.76737934     0.96481644     0.84269988
C      4.75299535     1.04839397    -0.60052731
O      5.11333400     1.84473197    -1.44465297
C      3.44949750     0.38463569    -0.60942058
C      2.39305478     0.51415301    -1.49526480
C      1.29771404    -0.28038044    -1.20121173
C      0.01832628    -0.40886686    -1.89798356
O     -0.26742922     0.20674255    -2.90631065
H     -5.76905707     1.79366844     2.20820532
H     -6.89221273     1.53787972     0.84983394
H     -5.72409988     2.88205789     0.82188007
H     -4.82971317    -0.50543228     2.05394227
H     -3.22982585    -1.99910460     0.93630081
H     -2.20437357    -1.64214832    -2.61841993
H     -2.24941045    -2.73298903    -1.22894464
H     -3.11980335     0.66527407    -2.45746433
H     -4.71981703     2.15589386    -1.33593375
H      2.29186510    -1.94386857     1.63460832
H      7.45873736     0.28722206     0.33296916
H      6.96379672     1.98818450     0.51160608
H      6.91816404     0.88039681     1.92233794
H      2.42094948     1.18255365    -2.34773450
