13
SMD(acetonitrile)-opt r2scan/def2-svp q=1 m=2
C 0.14316948 -0.00365241 0.00004576
C -0.54225282 -1.25004339 0.00000011
C -1.91511870 -1.25674802 -0.00008506
C -2.61877547 -0.01297775 -0.00012506
C -1.91989441 1.23487269 -0.00006738
C -0.54742775 1.23817616 0.00001860
H 0.00707699 2.17913728 0.00006060
H -2.49624442 2.16319038 -0.00009523
O -3.92666526 0.04609088 -0.00021856
H -4.32659743 -0.85188149 -0.00025206
H -2.47574997 -2.19651061 -0.00012588
H 0.01734365 -2.18805994 0.00002743
Br 1.99842566 -0.00162988 0.00013563
