26
bm_1_4_dihydroxy_9_10_anthraquinone_quinizarin conf 0 ff=MMFF E=44.609
O      0.20226492    -2.65770259     0.13384704
C      0.17814432    -1.43130666     0.07997966
C      1.42318315    -0.64947389     0.18944411
C      2.64716396    -1.30914918     0.35658620
C      3.82789175    -0.57188952     0.46056748
C      3.78940143     0.82089910     0.39812106
C      2.57009206     1.47970122     0.23155049
C      1.38474861     0.74126460     0.12709433
C      0.09878238     1.44035858    -0.04875626
O      0.05513470     2.66611594    -0.10481685
C     -1.15019632     0.66036871    -0.15874867
C     -2.38211285     1.31075412    -0.32640561
O     -2.50660620     2.67225661    -0.39734473
C     -3.56314956     0.57982893    -0.43069322
C     -3.52469744    -0.81153009    -0.36832216
C     -2.30542892    -1.46398943    -0.20202038
O     -2.35451010    -2.83116658    -0.15064473
C     -1.11165247    -0.73430906    -0.09622771
H      2.68689426    -2.39602857     0.40642034
H      4.77872919    -1.08468923     0.59042363
H      4.71020440     1.39488292     0.47925034
H      2.54973117     2.56721374     0.18389872
H     -1.61046350     3.07049997    -0.31169434
H     -4.51207531     1.09463937    -0.56041306
H     -4.44348124    -1.38739560    -0.44915001
H     -1.43799241    -3.17015341    -0.03194565
