56
cfg9 ip=3.5 off=1.6 par E=-31287.6392 fmax=0.046
C        4.93727783      -0.01169260       0.09108797      -0.01711122       0.00858444      -0.00301771
N        3.47217157      -0.07295374       0.19327439      -0.01470926      -0.00011562      -0.03836747
C        2.78596060      -1.18529774      -0.16850250      -0.01530732       0.01341603       0.00027736
C        1.42567640      -1.23022355      -0.14113546       0.00698430      -0.00910708      -0.02012660
C        0.64673663      -0.09985290       0.24539324       0.01006259      -0.01183773       0.03685011
C       -0.77448206      -0.08522044       0.18151408       0.00927437       0.00569236      -0.02264836
C       -1.52779587      -1.18673613      -0.33238060      -0.00572032      -0.01514059      -0.00376689
C       -2.87070913      -1.10934480      -0.47738412      -0.00517368       0.00924270      -0.02741692
N       -3.56656071       0.01794551      -0.15347386       0.00872076       0.00315836      -0.00337818
C       -5.00096696       0.07843896      -0.42080999      -0.00345163       0.00813807      -0.01380312
C       -2.88336553       1.10441433       0.30086465      -0.00398593       0.02133882      -0.01619820
C       -1.53930739       1.08619964       0.46703032       0.01261357       0.00553322       0.01724942
C        1.41885583       1.03426220       0.64358919      -0.00583927       0.02257338      -0.01774448
C        2.77626192       1.02267598       0.59598162       0.01023089       0.00069415      -0.01334789
H        5.30191770      -0.91301408      -0.39389852      -0.02439089       0.00881052       0.01870941
H        5.22259602       0.84909056      -0.51043784       0.00654312      -0.00911709       0.00519388
H        5.38755762       0.07155710       1.07984091      -0.02927423      -0.00344211      -0.00548313
H        3.38094479      -2.02590170      -0.49829736      -0.01623484       0.01177252       0.01453385
H        0.96539520      -2.14798976      -0.47046799      -0.01896272      -0.01953055       0.00298166
H       -1.05231606      -2.10778190      -0.63095434       0.00431654      -0.00897142      -0.01320690
H       -3.45410794      -1.92318883      -0.88524855      -0.01049832      -0.00071023      -0.01302945
H       -5.52267270      -0.68650144       0.15360356      -0.00105874      -0.00331112      -0.01708592
H       -5.37692252       1.05847010      -0.14054319      -0.01316163      -0.00614994       0.00775110
H       -5.18742418      -0.07916345      -1.48160216      -0.03464803       0.00808167      -0.01718096
H       -3.47176844       1.98743827       0.50478311      -0.01504362       0.00132861      -0.02108668
H       -1.07444289       1.99321186       0.82045986      -0.00373828       0.02409383      -0.01016942
H        0.95288889       1.96026335       0.94191480      -0.02039334       0.00177895       0.01579989
H        3.36915725       1.89331773       0.84559350      -0.02575938      -0.02782357       0.00645067
C        3.23466048      -1.23139194       3.53305055      -0.00110699      -0.00623817       0.01526881
N        1.80238160      -1.16539635       3.25720648      -0.00827321      -0.00792664      -0.00621657
C        1.12068689      -2.25578762       2.80897256      -0.01542628      -0.01344334       0.02671806
C       -0.22535579      -2.24462061       2.65638003       0.00164919      -0.00232271      -0.00623747
C       -0.99572513      -1.07752046       2.95623335      -0.01174733      -0.00564442       0.02966362
C       -2.41645602      -1.06131665       2.90215968      -0.00664680       0.01630994      -0.04279033
C       -3.18638010      -2.19388978       2.49559177       0.00018462      -0.01639603      -0.00527412
C       -4.54470650      -2.18534608       2.53840420       0.00276581       0.00692972       0.00886697
N       -5.24364109      -1.09382599       2.94891291       0.01605316      -0.00365110       0.02413854
C       -6.70552152      -1.17171336       3.08563669       0.02111193      -0.00327926       0.00142111
C       -4.55929007       0.01676928       3.31991134       0.01372163      -0.01103902       0.01148942
C       -3.19994691       0.06571790       3.29536108      -0.00088324       0.00542120       0.01463303
C       -0.24330373       0.02359260       3.47087734      -0.00615391       0.02328483      -0.00386409
C        1.10104747      -0.04512821       3.59872221       0.00933225      -0.00209236       0.02825265
H        3.65645179      -2.10164210       3.03665357       0.00752740       0.00703724      -0.00252008
H        3.72291709      -0.33208301       3.15983542      -0.00298672      -0.00257274       0.01676583
H        3.40905601      -1.31446171       4.60493408       0.04153517      -0.01189830       0.01643218
H        1.71212664      -3.13700654       2.60445315       0.01610271      -0.00060414       0.01633713
H       -0.68735485      -3.15293498       2.30250175      -0.00575791      -0.01863383       0.01705623
H       -2.71594886      -3.11206044       2.18101008       0.01392986      -0.00784426      -0.02186972
H       -5.13586448      -3.04945577       2.26397341       0.02267173       0.01924204       0.01086800
H       -6.96416906      -1.87071969       3.87951977      -0.00375029       0.01047302      -0.00618518
H       -7.09671677      -0.18970543       3.33724930       0.02717669      -0.01253951      -0.01584922
H       -7.15396827      -1.50479800       2.15081903       0.03054071       0.00284848       0.00346680
H       -5.15663727       0.85219058       3.65939235       0.02248903      -0.01917746      -0.00958422
H       -2.74465563       0.98230477       3.63561140       0.02378945       0.01130721      -0.01033104
H       -0.72091889       0.94245553       3.77288763       0.00089965       0.01426642       0.02554345
H        1.68387052       0.77588180       3.99281539       0.00696855      -0.01079715       0.01506116
