42
conf 0 ff=MMFF E=92.976 Rg=3.91 smiles=CCN(Cc1ccc(C)cc1)C1=CC(=O)c2ccccc2C1=O
C      4.18238355     2.67403749    -0.45337166
C      3.26490755     1.50423045    -0.64995228
C      2.45607866     1.42083794    -1.78817140
C      1.62317509     0.31681175    -1.98657615
C      1.58565738    -0.72831052    -1.05393599
C      0.68685770    -1.92790550    -1.27997114
C      2.41257170    -0.64921864     0.07554577
C      3.24608589     0.45425542     0.27410313
C      0.68894459    -3.98187489     1.20932989
C     -0.40469093    -3.55454813     0.24318386
N     -0.24159830    -2.14600524    -0.14977703
C     -1.12836073    -1.14749364     0.30948941
C     -1.53576802    -1.07086062     1.58600881
C     -2.40694236    -0.01076374     2.11761932
O     -2.80073983    -0.05369826     3.27649783
C     -2.75473983     1.10005188     1.22287877
C     -3.46302079     2.20072905     1.72310917
C     -3.79729177     3.25803221     0.87597881
C     -3.42953158     3.21599750    -0.46820640
C     -2.72806787     2.11608882    -0.96619049
C     -2.38586928     1.05421137    -0.11659995
C     -1.66737971    -0.11522594    -0.66170445
O     -1.56832800    -0.23385283    -1.88036500
H      5.15135951     2.47220876    -0.92013316
H      4.33728393     2.87436288     0.61204452
H      3.75834512     3.58172270    -0.89556872
H      2.46490516     2.21716504    -2.52884379
H      0.98991162     0.28165474    -2.87144412
H      0.13349610    -1.85534454    -2.22227829
H      1.34907538    -2.79526257    -1.40440860
H      2.40437949    -1.44826298     0.81252924
H      3.87861994     0.48889655     1.15809105
H      0.53208150    -5.01865573     1.52294510
H      1.67793584    -3.91746703     0.74488801
H      0.69894092    -3.35238177     2.10458916
H     -0.38438847    -4.19632140    -0.64625889
H     -1.38455998    -3.71899525     0.70781919
H     -1.19994592    -1.78447738     2.32845355
H     -3.75416460     2.23654668     2.77150626
H     -4.34596632     4.11307564     1.26457432
H     -3.69148299     4.03781126    -1.13091946
H     -2.45015932     2.08819848    -2.01847148
