42
conf 1 ff=MMFF E=93.048 Rg=4.42 smiles=CCN(Cc1ccc(C)cc1)C1=CC(=O)c2ccccc2C1=O
C     -6.42392006     0.95622955     0.02923214
C     -4.97812848     0.62495960    -0.19316371
C     -3.97920107     1.30060608     0.51605830
C     -2.63171821     1.01497138     0.28571977
C     -2.25706074     0.05071179    -0.66103751
C     -0.79385974    -0.24688435    -0.92300078
C     -3.25918638    -0.60806067    -1.38590055
C     -4.60715897    -0.32126748    -1.15516475
C      0.03711000    -3.09594152     0.36148894
C     -0.56395552    -1.84317829     0.98435396
N     -0.07094911    -0.61738714     0.31723430
C      1.25757862    -0.18703035     0.53593625
C      1.75401225     0.01100694     1.76641977
C      3.12393732     0.46900072     2.04530819
O      3.51238020     0.59647019     3.19963737
C      3.99113724     0.77483422     0.90033820
C      5.28342897     1.26969460     1.12268989
C      6.11490890     1.56139462     0.04080965
C      5.65972180     1.35824210    -1.26090835
C      4.37272635     0.86327697    -1.48131309
C      3.53245230     0.57151481    -0.39663142
C      2.17757551     0.03752263    -0.64762369
O      1.84592022    -0.23156219    -1.79934961
H     -7.05785010     0.08293011    -0.15705931
H     -6.72984423     1.76525657    -0.64114505
H     -6.59838575     1.26864600     1.06421600
H     -4.24280729     2.05479566     1.25396868
H     -1.86730232     1.54434515     0.85084125
H     -0.37990496     0.67148022    -1.35824824
H     -0.68613630    -1.04320228    -1.66859719
H     -2.99725683    -1.34882370    -2.13811155
H     -5.36716266    -0.84165756    -1.73376088
H     -0.22485942    -3.17986855    -0.69779057
H     -0.33762864    -3.98782322     0.87356766
H      1.12911863    -3.09655122     0.43882462
H     -1.65589320    -1.90923312     0.93757387
H     -0.31968008    -1.81764889     2.05243844
H      1.14060084    -0.13370870     2.64832601
H      5.64437468     1.42857844     2.13760153
H      7.11773108     1.94565584     0.21412049
H      6.30692008     1.58308021    -2.10591934
H      4.02821505     0.70462483    -2.50208379
