42
conf 8 ff=MMFF E=93.048 Rg=4.42 smiles=CCN(Cc1ccc(C)cc1)C1=CC(=O)c2ccccc2C1=O
C     -6.40232536    -0.54821578     0.96491203
C     -4.91670013    -0.34350578     0.98779784
C     -4.32214612     0.42547729     1.99456414
C     -2.93528315     0.59110425     2.03575343
C     -2.11719915    -0.01410372     1.07236267
C     -0.61116586     0.15046006     1.12643247
C     -2.71455068    -0.80290496     0.07864403
C     -4.10077183    -0.96747674     0.03791883
C      0.24914268     3.10118213     0.12134862
C     -0.54513714     1.99375235    -0.55789401
N     -0.06044854     0.65475570    -0.15437021
C      1.17677521     0.18016761    -0.64637815
C      1.45788264     0.13582709    -1.95739580
C      2.72417805    -0.35970475    -2.51880025
O      2.91679237    -0.33893513    -3.72796629
C      3.72924303    -0.88439757    -1.58549174
C      4.92475213    -1.41989693    -2.08382922
C      5.88608236    -1.91910141    -1.20431210
C      5.65704867    -1.88278905     0.17015516
C      4.46645831    -1.34722459     0.66572881
C      3.49604394    -0.84700391    -0.21506117
C      2.24669491    -0.27323466     0.32692932
O      2.12160449    -0.15729332     1.54339203
H     -6.76098692    -0.69294968    -0.05960741
H     -6.66819247    -1.42688518     1.56053665
H     -6.92328329     0.32551709     1.37039478
H     -4.93634099     0.90071800     2.75620674
H     -2.49800921     1.19500760     2.82774504
H     -0.21418920    -0.84595867     1.35827093
H     -0.32197484     0.81964705     1.94508864
H     -2.09468693    -1.28926716    -0.67179131
H     -4.53861798    -1.58663689    -0.74165149
H      1.31207847     3.04573810    -0.13469853
H      0.16240096     3.04370527     1.21080137
H     -0.12338331     4.08036304    -0.19572864
H     -0.47230582     2.11131465    -1.64509358
H     -1.60707682     2.11945917    -0.32261610
H      0.72970790     0.44689958    -2.69764762
H      5.10923615    -1.44906572    -3.15652910
H      6.81366025    -2.33478136    -1.59180422
H      6.40595645    -2.26960082     0.85788572
H      4.29903677    -1.32016224     1.74140009
