42
conf 4 ff=MMFF E=93.048 Rg=4.42 smiles=CCN(Cc1ccc(C)cc1)C1=CC(=O)c2ccccc2C1=O
C     -6.43720982     0.60701156     0.61272595
C     -4.99606132     0.46573662     0.22202928
C     -4.64838376     0.05771051    -1.07065870
C     -3.30627877    -0.04389933    -1.44608994
C     -2.28703485     0.26575937    -0.53563986
C     -0.83102322     0.17283960    -0.94739691
C     -2.63947995     0.69654256     0.75149744
C     -3.98108796     0.79730196     1.12604670
C      0.11926917    -2.91512705    -1.08501287
C     -0.48023803    -2.09156727     0.04680058
N     -0.04482431    -0.67868403    -0.02281221
C      1.28251801    -0.33703174     0.32282297
C      1.82966724    -0.68371932     1.49763791
C      3.20047960    -0.34227685     1.90815515
O      3.63786479    -0.72281837     2.98680801
C      4.00811740     0.47216265     0.99113124
C      5.29804347     0.86852693     1.36971707
C      6.07316851     1.64099956     0.50405047
C      5.56409717     2.01623017    -0.73811859
C      4.27955098     1.61911960    -1.11517110
C      3.49577313     0.84500263    -0.24675192
C      2.14290388     0.42373754    -0.66641616
O      1.76543467     0.67848642    -1.80724659
H     -6.79073212     1.61621135     0.38023397
H     -6.57148216     0.42255511     1.68379054
H     -7.05968697    -0.11833387     0.07829259
H     -5.42221714    -0.18298567    -1.79621329
H     -3.06250534    -0.36485053    -2.45639868
H     -0.73975000    -0.20698455    -1.97162550
H     -0.45735544     1.20460723    -0.94308503
H     -1.86204219     0.95143520     1.46881880
H     -4.22747420     1.13654691     2.12954382
H     -0.21232498    -3.95556799    -1.00994853
H      1.21341288    -2.90656182    -1.04974058
H     -0.18847856    -2.53256147    -2.06311429
H     -1.57146687    -2.17336032     0.00933264
H     -0.18851435    -2.53106812     1.00745709
H      1.26008781    -1.22748155     2.24254023
H      5.70098228     0.57665289     2.33823120
H      7.07418292     1.94846075     0.79862844
H      6.16734546     2.61680355    -1.41551103
H      3.89275296     1.91443917    -2.08934034
