42
conf 6 ff=MMFF E=93.048 Rg=4.42 smiles=CCN(Cc1ccc(C)cc1)C1=CC(=O)c2ccccc2C1=O
C      6.18480469     1.26383937     1.40154651
C      4.84764124     0.91243087     0.82015535
C      3.67094095     1.37541076     1.41880356
C      2.42709472     1.07523196     0.85925806
C      2.33615492     0.30933069    -0.31191126
C      0.98665097    -0.00191993    -0.92843908
C      3.51748804    -0.13377564    -0.92164312
C      4.76162748     0.16747799    -0.36139289
C      0.18672526    -3.09337851    -0.41808839
C      0.53548790    -1.96724007     0.54566956
N      0.07184332    -0.65688470     0.03707019
C     -1.30774411    -0.34927311     0.04910036
C     -2.05210338    -0.43518216     1.16189003
C     -3.48646736    -0.11512083     1.22817756
O     -4.10394393    -0.24877736     2.27721046
C     -4.13662223     0.37595937     0.00643192
C     -5.48750819     0.74769832     0.04195551
C     -6.11386363     1.21376336    -1.11449419
C     -5.39531743     1.30729204    -2.30524151
C     -4.04997391     0.93477503    -2.34003564
C     -3.41557874     0.46851934    -1.17905902
C     -1.99436403     0.06763685    -1.23634460
O     -1.41976150     0.05942999    -2.32199541
H      6.54037054     2.20824870     0.97824604
H      6.92078999     0.48116218     1.18948109
H      6.12316113     1.36450769     2.49026142
H      3.71384882     1.97349812     2.32613483
H      1.52110076     1.43696619     1.34119055
H      0.58310602     0.96421264    -1.25696409
H      1.10132217    -0.63154318    -1.81842073
H      3.47778334    -0.71570483    -1.83976014
H      5.66512370    -0.18291538    -0.85546115
H     -0.89440819    -3.16563134    -0.57428533
H      0.65806486    -2.94330050    -1.39433502
H      0.53448568    -4.05147909    -0.01907499
H      1.61671308    -1.96644047     0.71837836
H      0.08508693    -2.17529555     1.52289964
H     -1.61296437    -0.72742803     2.10884632
H     -6.05368798     0.67495155     0.96916596
H     -7.16232565     1.50231879    -1.08614574
H     -5.88207680     1.66850601    -3.20859623
H     -3.49870506     1.00812286    -3.27627893
