42
conf 9 ff=MMFF E=93.059 Rg=4.42 smiles=CCN(Cc1ccc(C)cc1)C1=CC(=O)c2ccccc2C1=O
C     -6.41581403     0.97910658     0.04658754
C     -4.97607479     0.68291954     0.34481205
C     -4.63313058    -0.29883435     1.28128984
C     -3.29246449    -0.59778468     1.53767767
C     -2.27022323     0.06928634     0.84939509
C     -0.81508318    -0.24211441     1.13856758
C     -2.61764901     1.04787903    -0.09301878
C     -3.95784992     1.34563754    -0.34901430
C      0.01618508    -3.08768335    -0.15049883
C     -0.55899220    -1.82469414    -0.77711871
N     -0.06994308    -0.60863281    -0.08966614
C      1.26642862    -0.18786859    -0.27717987
C      1.78980800     0.01657537    -1.49538670
C      3.16900777     0.46517542    -1.74196368
O      3.58229158     0.59917974    -2.88688904
C      4.01487554     0.75373514    -0.57672878
C      5.31556492     1.23947512    -0.76805008
C      6.12689852     1.51475215     0.33325545
C      5.64321804     1.30426888     1.62348299
C      4.34786351     0.81838840     1.81296614
C      3.52779851     0.54314961     0.70867933
C      2.16362930     0.01854200     0.92699619
O      1.80601560    -0.25773298     2.06920736
H     -6.54487707     2.02275822    -0.25896984
H     -7.03889023     0.82146462     0.93323756
H     -6.77289545     0.32814430    -0.75731532
H     -5.40949019    -0.83646906     1.82109927
H     -3.05217265    -1.35850021     2.27708080
H     -0.72871037    -1.04462043     1.88030041
H     -0.40279263     0.66955576     1.58923951
H     -1.83766529     1.57505961    -0.63858423
H     -4.20054896     2.10039775    -1.09348170
H      1.10964723    -3.09765932    -0.20255556
H     -0.35456368    -3.97210430    -0.67818763
H     -0.27104796    -3.17745530     0.90172409
H     -0.29025381    -1.79359964    -1.83916713
H     -1.65226568    -1.88068956    -0.75576973
H      1.19353082    -0.11518803    -2.39097024
H      5.69872753     1.40402992    -1.77387157
H      7.13625137     1.89195226     0.18403146
H      6.27465246     1.51631074     2.48359311
H      3.98100408     0.65388711     2.82498694
