42
conf 7 ff=MMFF E=93.048 Rg=4.42 smiles=CCN(Cc1ccc(C)cc1)C1=CC(=O)c2ccccc2C1=O
C     -6.37481903    -1.23596720     0.06826366
C     -4.95158401    -0.79148336     0.23057903
C     -4.64954602     0.37425965     0.94347669
C     -3.32234444     0.77287143     1.12281803
C     -2.27230586     0.00912638     0.59577337
C     -0.83140248     0.43127198     0.80490412
C     -2.57770196    -1.17062738    -0.09808017
C     -3.90447699    -1.56799426    -0.27730761
C     -0.08580765     2.92706709    -1.11149905
C     -0.61436229     1.53404100    -1.42575653
N     -0.08911793     0.52885442    -0.47476717
C      1.26238491     0.12355323    -0.55958912
C      1.80248302    -0.33887548    -1.69722163
C      3.19826447    -0.78336430    -1.83306803
O      3.62528223    -1.16436756    -2.91570585
C      4.04398944    -0.76393850    -0.63269263
C      5.36217482    -1.23439151    -0.70621031
C      6.17346437    -1.21808272     0.42889278
C      5.67225248    -0.73167489     1.63517988
C      4.35940397    -0.26133578     1.70687975
C      3.53941779    -0.27866811     0.56888187
C      2.15623212     0.23357572     0.65965431
O      1.77995218     0.75405025     1.70674250
H     -6.50554344    -1.79505365    -0.86424022
H     -6.66534920    -1.87490268     0.90782953
H     -7.05060741    -0.37522017     0.02766980
H     -5.44761358     0.98053981     1.36620528
H     -3.11431220     1.68389079     1.67952444
H     -0.77955429     1.38710669     1.33907025
H     -0.39147934    -0.33511985     1.45552018
H     -1.77523461    -1.78217206    -0.50550263
H     -4.11402509    -2.48868247    -0.81696394
H     -0.48320575     3.65127096    -1.82962717
H      1.00697268     2.96209777    -1.16695284
H     -0.38192862     3.24920061    -0.10836203
H     -1.70902625     1.55634719    -1.41598779
H     -0.33814038     1.26557657    -2.45179727
H      1.20942069    -0.43928591    -2.59898279
H      5.75901638    -1.61381864    -1.64648928
H      7.19641456    -1.58357310     0.37115890
H      6.30355610    -0.71614487     2.52099966
H      3.97880661     0.12004289     2.65319939
