42
conf 2 ff=MMFF E=93.048 Rg=4.42 smiles=CCN(Cc1ccc(C)cc1)C1=CC(=O)c2ccccc2C1=O
C      6.32290952     1.08096677    -0.83979126
C      4.93447490     0.75817941    -0.37334705
C      4.73417234    -0.03380919     0.76289445
C      3.44184550    -0.30932210     1.21731932
C      2.32581691     0.20698169     0.54532497
C      0.92396622    -0.07674871     1.04777464
C      2.53103240     1.01922592    -0.57924420
C      3.82297580     1.29364231    -1.03304145
C      0.05075198    -3.10826693     0.33719039
C      0.51090229    -1.95577124    -0.54523390
N      0.05947127    -0.65148722    -0.01070613
C     -1.30321437    -0.28859139    -0.10775743
C     -1.96602497    -0.29557983    -1.27411321
C     -3.37883560     0.08433674    -1.42858969
O     -3.92165267     0.02182114    -2.52451791
C     -4.09893759     0.54686922    -0.23525649
C     -5.42893416     0.97364493    -0.35064212
C     -6.12141466     1.41312367     0.77818171
C     -5.48980204     1.42532589     2.02070013
C     -4.16530368     0.99802651     2.13492279
C     -3.46448365     0.55823385     1.00216028
C     -2.06707537     0.09858989     1.14293560
O     -1.57488215     0.01964747     2.26560406
H      6.68060543     1.99101480    -0.34848166
H      6.34558183     1.23150281    -1.92425280
H      7.01204441     0.26099913    -0.61181735
H      5.58525082    -0.44137807     1.30394721
H      3.31312745    -0.92888109     2.10204384
H      0.53304564     0.88940482     1.39116576
H      0.94942247    -0.74895736     1.91329749
H      1.67698719     1.43768122    -1.10786008
H      3.95468200     1.92872679    -1.90603760
H     -1.04088471    -3.14390705     0.41150448
H      0.39154514    -4.06108731    -0.08006336
H      0.45394575    -3.02023982     1.35081427
H      0.12654593    -2.10247836    -1.56104465
H      1.60122419    -1.99073290    -0.63931040
H     -1.46920224    -0.56327724    -2.19957680
H     -5.92739661     0.96449127    -1.31864020
H     -7.15360600     1.74442854     0.68785684
H     -6.02832825     1.76567660     2.90252281
H     -3.68234867     1.00797441     3.11087715
