42
conf 3 ff=MMFF E=93.048 Rg=4.42 smiles=CCN(Cc1ccc(C)cc1)C1=CC(=O)c2ccccc2C1=O
C     -6.36951844     0.33988469     1.22261641
C     -4.96273131     0.32216382     0.70285947
C     -3.88074993     0.43122336     1.58307188
C     -2.57180916     0.44720750     1.09647999
C     -2.31975640     0.35815405    -0.28012936
C     -0.89952075     0.39271800    -0.80916986
C     -3.40638215     0.27185151    -1.16072999
C     -4.71574751     0.25646038    -0.67303567
C      0.02359887    -2.54785570    -1.78822913
C     -0.48485328    -2.04328234    -0.44452823
N     -0.04951444    -0.65189164    -0.18922108
C      1.30171073    -0.38849029     0.13145199
C      1.93457530    -1.01069278     1.13748464
C      3.33404838    -0.76311699     1.51750140
O      3.85004436    -1.39559316     2.43037417
C      4.07368595     0.26701589     0.77703614
C      5.39032457     0.57461023     1.14607650
C      6.10123621     1.55077109     0.44705562
C      5.50137729     2.21804546    -0.61964444
C      4.19021454     1.90942150    -0.98779402
C      3.47087552     0.93085533    -0.28588376
C      2.08825313     0.60854065    -0.69613893
O      1.62674241     1.13567832    -1.70509988
H     -6.73501249     1.36986678     1.27802353
H     -7.03396398    -0.23725489     0.57096418
H     -6.42319392    -0.10923928     2.21993145
H     -4.04893433     0.50434504     2.65506356
H     -1.74115905     0.52539174     1.79493417
H     -0.52188251     1.39577394    -0.57367728
H     -0.88775489     0.28325120    -1.89982145
H     -3.24123819     0.21809022    -2.23450721
H     -5.54336620     0.19411125    -1.37613535
H     -0.30614159    -3.57858393    -1.95247933
H      1.11730486    -2.53248722    -1.83333307
H     -0.35542266    -1.93672967    -2.61322159
H     -1.57615532    -2.12898377    -0.42010906
H     -0.12332501    -2.70533971     0.35052008
H      1.42050775    -1.73215182     1.76215156
H      5.86403612     0.05509456     1.97750324
H      7.12304020     1.78915404     0.73416881
H      6.05437111     2.97808567    -1.16736763
H      3.73218621     2.43392698    -1.82501248
