42
conf 5 ff=MMFF E=93.048 Rg=4.42 smiles=CCN(Cc1ccc(C)cc1)C1=CC(=O)c2ccccc2C1=O
C     -6.45736354     0.68224188    -0.06307252
C     -5.01175024     0.32748776     0.12094324
C     -4.64747300    -0.92944425     0.61675697
C     -3.30257604    -1.25031874     0.81877008
C     -2.29732026    -0.31691070     0.53263213
C     -0.83906754    -0.65777553     0.76811953
C     -2.66739297     0.94965523     0.05790253
C     -4.01175649     1.26932364    -0.14421259
C      0.24932825    -2.65576310    -1.52987919
C     -0.38534000    -1.27391783    -1.60959554
N     -0.01418614    -0.44009005    -0.44441555
C      1.29680139     0.07874657    -0.34366447
C      1.86040275     0.79930617    -1.32493809
C      3.21489572     1.37005611    -1.26307449
O      3.67024251     1.99129764    -2.21508980
C      3.98391784     1.17843716    -0.02678601
C      5.25510502     1.75601550     0.09498023
C      5.99359761     1.57774170     1.26534672
C      5.46666922     0.82313053     2.31217225
C      4.20089066     0.24643746     2.18906394
C      3.45383239     0.42561339     1.01538816
C      2.12083952    -0.20131314     0.89736606
O      1.73091702    -0.94765452     1.79168345
H     -6.58195245     1.40369570    -0.87745005
H     -6.85635902     1.11649605     0.85874249
H     -7.04706094    -0.20355645    -0.32161636
H     -5.41047140    -1.66848378     0.85092909
H     -3.04570732    -2.23472219     1.20364731
H     -0.51233502    -0.00410290     1.58674538
H     -0.73191092    -1.69372873     1.11011414
H     -1.90144195     1.69113995    -0.15992438
H     -4.27206863     2.25965550    -0.51065205
H     -0.03491868    -3.25143579    -2.40308161
H      1.34201170    -2.59318949    -1.50559510
H     -0.07652734    -3.19335273    -0.63402470
H     -0.07291963    -0.78575662    -2.53976533
H     -1.47181473    -1.38355639    -1.68977536
H      1.31679680     1.03037485    -2.23382602
H      5.67193008     2.34497384    -0.72046672
H      6.98007677     2.02649481     1.35925352
H      6.04143124     0.68112676     3.22482977
H      3.80002779    -0.34437526     3.01130478
