13
SMD(acetonitrile)-opt r2scan/def2-svp q=0 m=1
C 0.13924933 -0.00110938 0.00004834
C -0.54506577 -1.21909444 -0.00000492
C -1.94207405 -1.22057957 -0.00009267
C -2.65158223 -0.00862731 -0.00012715
C -1.94808097 1.20747776 -0.00007197
C -0.55313810 1.21437646 0.00001607
H -0.01256071 2.16428786 0.00005871
H -2.50715701 2.14737749 -0.00009843
O -4.00065174 0.04374578 -0.00021225
H -4.35535822 -0.86188375 -0.00024233
H -2.48634134 -2.17107877 -0.00013441
H -0.00058900 -2.16669783 0.00002096
Br 2.04733445 0.00502746 0.00016695
