21
SMD(acetonitrile)-opt r2scan/def2-svp q=0 m=1
Fe 0.00476321 -0.00001353 0.00226050
C 1.22498203 -0.00036544 1.62896605
H 2.31646469 -0.00065415 1.61271560
C 0.38213451 1.16040591 1.62884828
H 0.71967991 2.19837867 1.61254952
C -0.98233893 0.71749374 1.62874084
H -1.86520721 1.35926829 1.61246097
C -0.98271149 -0.71708707 1.62871264
H -1.86590489 -1.35841355 1.61240109
C 0.38153253 -1.16070813 1.62875259
H 0.71855678 -2.19885109 1.61255589
C 1.22489821 0.00035693 -1.62545286
H 2.31637976 0.00062978 -1.60929247
C 0.38152537 1.16059138 -1.62528282
H 0.71853826 2.19873525 -1.60903043
C -0.98259938 0.71701459 -1.62521813
H -1.86579663 1.35833421 -1.60902208
C -0.98222979 -0.71744020 -1.62527012
H -1.86509305 -1.35922085 -1.60910967
C 0.38212205 -1.16031807 -1.62532093
H 0.71967926 -2.19828766 -1.60926547
