35
mv_ip1 conf 0 ff=UFF E=34.097
C      4.94839440     0.63373005    -0.47810066
N      3.50348699     0.41362718    -0.38526261
C      2.89046793     0.44699997     0.83505628
C      1.50834385     0.27611874     0.94110792
C      0.73740882     0.08119725    -0.21507937
C     -0.73406769    -0.10298140    -0.12396453
C     -1.39284590    -1.02913913    -0.94697585
C     -2.77676679    -1.18830323    -0.84626314
N     -3.49658565    -0.45862177     0.05679302
C     -4.95165469    -0.61247370     0.11944640
C     -2.87822913     0.46341098     0.85275273
C     -1.49588190     0.65014221     0.78241271
C      1.38535463     0.07046954    -1.45971853
C      2.76938566     0.24622263    -1.52505740
F     -1.12284880    -0.51728719    -1.12880545
P     -0.00000013     0.00000012     0.00000016
F      1.20919378    -0.10964649    -1.15256482
F      0.28220405    -1.58838572     0.44717848
F     -0.28220494     1.58838510    -0.44717859
F      1.12284880     0.51728687     1.12880526
F     -1.20919277     0.10964730     1.15256496
H      5.46528794     0.25045023     0.42838400
H      5.15280840     1.72032439    -0.58011882
H      5.37355643     0.10021077    -1.35582641
H      3.46956430     0.60244965     1.73783578
H      1.04987165     0.28222195     1.92195267
H     -0.84206107    -1.63710227    -1.65359297
H     -3.26997134    -1.90374278    -1.49389195
H     -5.32727574    -0.40193878     1.14433298
H     -5.25037896    -1.65160465    -0.13894995
H     -5.43058854     0.09072105    -0.59401021
H     -3.45297353     1.06410687     1.54799839
H     -1.03114383     1.39408003     1.41714417
H      0.82507250    -0.05054213    -2.37827662
H      3.25142128     0.24996634    -2.49570716
