35
mv_ip1 conf 2 ff=UFF E=74.375
C      4.95920408    -0.23479821     0.21020803
N      3.50827178    -0.22153774     0.05131406
C      2.73957209    -1.14639329     0.71453553
C      1.34595061    -1.09734133     0.60793494
C      0.74234422    -0.07374536    -0.16747900
C     -0.73806579    -0.00131868    -0.26310300
C     -1.34067651     0.50955794    -1.42881558
C     -2.72854352     0.61743577    -1.51505348
N     -3.50752189     0.20542998    -0.47308241
C     -4.95476859     0.32315414    -0.59292598
C     -2.96057372    -0.28617172     0.66588731
C     -1.56314580    -0.40052084     0.80651229
C      1.54734989     0.87731390    -0.81323938
C      2.93219803     0.77506551    -0.68446494
F     -1.69753877    -0.20894028    -0.27701743
P     -0.11726394     0.15130343    -0.40405356
F      0.37907063    -0.77490312     0.91514715
F      1.53294490     0.53676234    -0.56846167
F      0.19884792    -1.44391546    -0.74424371
F      0.06270945    -0.03605240     1.24529362
F     -0.35877018     1.77574550    -0.16666440
H      5.44907525     0.13544897    -0.72608781
H      5.25135291     0.38086584     1.05560756
H      5.32593757    -1.29259602     0.35989128
H      3.19044104    -1.90667396     1.30897833
H      0.76602595    -1.85376904     1.11928339
H     -0.75272247     0.82241784    -2.29316033
H     -3.16951822     1.01554188    -2.39921697
H     -5.47999368    -0.18545024     0.26644836
H     -5.24666811     1.38303238    -0.57951218
H     -5.29524193    -0.16595576    -1.51945284
H     -3.55440841    -0.60372568     1.51645522
H     -1.14809665    -0.76152322     1.71629339
H      1.14314186     1.67143480    -1.35565200
H      3.53908001     1.51482210    -1.18018382
