35
mv_ip1 conf 6 ff=UFF E=96.763
C     -4.94928524     0.58174398     0.36083374
N     -3.53294921     0.32327736     0.23039065
C     -2.85600590     0.96494190    -0.76017171
C     -1.49194930     0.79821764    -0.92260545
C     -0.79312960     0.01649249     0.02523317
C      0.72801632    -0.04794989    -0.00139321
C      1.55151915     1.00288495    -0.48348700
C      2.95854061     0.80266198    -0.58077378
N      3.56238006    -0.37617696    -0.20338060
C      5.02035874    -0.48054528    -0.31976674
C      2.79293061    -1.40915606     0.29460037
C      1.36624157    -1.28139180     0.40211343
C     -1.48281984    -0.63673299     1.10031679
C     -2.87749792    -0.45763804     1.20674439
F      1.27991237    -0.90341830    -0.21884700
P     -0.06974048     0.08431790    -0.27681107
F     -0.92634583    -1.37771968    -0.58377312
F      1.00639279    -0.82233104     0.59429148
F      0.88278329     1.50590624    -0.14845014
F     -0.71021656     0.45022379     1.23401306
F     -1.46278558     1.06302109    -0.60042322
H     -5.15971870     1.55730007     0.86714846
H     -5.46314480     0.57070670    -0.66589777
H     -5.48777748    -0.22348183     0.91817141
H     -3.32393512     1.65467685    -1.53784996
H     -0.95038439     1.19978385    -1.70094836
H      1.09174741     1.94569661    -0.70107455
H      3.47429932     1.64784006    -0.98558914
H      5.48622790     0.45980973    -0.71360376
H      5.22329096    -1.30776160    -1.02521371
H      5.44143779    -0.66165635     0.68622900
H      3.33288137    -2.30909320     0.57746892
H      0.89774137    -2.19024537     0.76242491
H     -1.04837562    -1.23224427     1.91033039
H     -3.51064009    -0.91196051     1.99603879
