35
mv_ip1 conf 3 ff=UFF E=86.929
C      4.92268119     0.47974808    -0.67410524
N      3.49264195     0.29714757    -0.38029998
C      2.62536494     1.23440616    -0.85126943
C      1.28968068     1.14634862    -0.60758823
C      0.77882232     0.01740464     0.03754018
C     -0.73498122    -0.20087860     0.10972669
C     -1.54759011     0.29281711    -0.91455648
C     -2.92293786     0.28925821    -0.74382915
N     -3.51752809    -0.20702541     0.36146560
C     -4.98200855    -0.20933436     0.44306599
C     -2.77745516    -0.78754299     1.36929822
C     -1.36743971    -0.77347007     1.27540322
C      1.68695641    -0.99629022     0.52980052
C      3.06072624    -0.81483215     0.28950858
F     -0.68918836     1.51179156    -0.04752086
P      0.14968690     0.07231501    -0.47176944
F      0.02768857    -0.39733055     1.12902809
F      1.53635788     0.90857777     0.04051909
F     -0.69898358     0.08060369     1.01570449
F      0.87846717    -1.44004779    -0.69592165
F     -1.20402858    -0.73590968    -0.97003971
H      5.23319813     1.52108712    -0.52858571
H      5.56308142    -0.12926972     0.03936724
H      5.16311465     0.14784816    -1.70471835
H      2.97196283     2.04058007    -1.40360992
H      0.65451603     1.91144704    -0.90035504
H     -1.14863593     0.64883856    -1.80446898
H     -3.51398957     0.71166131    -1.51836749
H     -5.34672186    -0.36988778     1.49233702
H     -5.33824815    -1.04200651    -0.19857840
H     -5.36073354     0.73777550     0.08190504
H     -3.20517954    -1.22751136     2.26125816
H     -0.76961568    -1.18806725     2.13654782
H      1.34655792    -1.92424764     1.05087374
H      3.74376028    -1.60600408     0.65270743
