35
mv_ip1 conf 4 ff=UFF E=89.600
C     -5.13400446     0.09608941     0.44452911
N     -3.67417726     0.01531680     0.30874338
C     -3.02436507    -1.10320408    -0.13717130
C     -1.60683807    -1.10568746    -0.33483267
C     -0.79324018     0.02279356     0.02520888
C      0.79264661     0.00716479    -0.05200815
C      1.54169015    -1.21868964    -0.12929486
C      2.96448579    -1.18081051    -0.21117585
N      3.67342404    -0.00723994    -0.12117347
C      5.15065016    -0.08541515    -0.09055415
C      2.99672524     1.15235683     0.02000127
C      1.58081545     1.18145797     0.02592470
C     -1.53919916     1.17206833     0.42354143
C     -2.94481684     1.13416281     0.55372545
F      1.35194802    -0.95021840    -0.62866642
P     -0.01773599     0.02198788    -0.48443941
F     -1.05184266    -1.22825882    -0.79112438
F      1.06133052     1.22252265    -0.13783425
F     -0.06375149    -0.48479364     1.17152494
F      0.07573457     0.38032493     1.11662859
F     -1.35568297     1.03843540    -0.24608908
H     -5.57341766     0.67711748    -0.40266930
H     -5.43592623     0.65365776     1.37917805
H     -5.64116778    -0.90571820     0.48960982
H     -3.60304494    -2.01727606    -0.37521750
H     -1.13542997    -2.01692445    -0.76046453
H      1.04530013    -2.19346663    -0.10683149
H      3.50886117    -2.16231898    -0.31872163
H      5.51446727    -0.49663056     0.89449466
H      5.58453652    -0.78912766    -0.88400905
H      5.63963802     0.89238923    -0.24465924
H      3.54058107     2.04155507     0.15005600
H      1.08745805     2.12467959     0.06910191
H     -1.04828713     2.07273086     0.67324486
H     -3.46736494     2.03896882     0.84073845
