35
mv_ip1 conf 9 ff=UFF E=111.089
C     -4.93575736    -0.32576117    -0.59687083
N     -3.44519343    -0.33402636    -0.44604423
C     -2.86551109     0.97566836    -0.37672785
C     -1.50156899     1.07274349    -0.25573004
C     -0.72988075    -0.09854214    -0.20900761
C      0.71639074     0.04332284    -0.09160952
C      1.54272601    -0.92467294    -0.71800165
C      2.93983017    -0.74370684    -0.60093349
N      3.44556349     0.27655842     0.02802474
C      4.92491980     0.37476507     0.12835383
C      2.68738872     1.24787908     0.66236019
C      1.28019628     1.10379767     0.57164393
C     -1.31973540    -1.36330857    -0.29984531
C     -2.73994883    -1.40144511    -0.42581271
F      1.74288661    -0.02890934    -0.33772244
P      0.05785241     0.19448343    -0.24204686
F     -1.53384089     0.58022966    -0.49941584
F      0.04705268     0.24238499     1.42956254
F      0.20986749    -1.49835434    -0.14256524
F      0.12816008     1.84920511    -0.15230800
F     -0.65197838    -1.33903950    -0.05550416
H     -5.17508762    -0.54070347    -1.63236294
H     -5.32805923    -1.10260084     0.10274904
H     -5.35376207     0.63572515    -0.30304086
H     -3.43797311     1.83801153    -0.39986820
H     -1.06851543     2.02927377    -0.21377669
H      1.15034965    -1.72602544    -1.25163724
H      3.55443389    -1.50263213    -1.07714805
H      5.27020807    -0.52417503     0.63861947
H      5.31860594     0.41420220    -0.88656839
H      5.21037128     1.29488251     0.68526677
H      3.11051182     2.07614008     1.19140015
H      0.67780261     1.88672271     1.08137493
H     -0.73854816    -2.27449380    -0.25991088
H     -3.18975702    -2.40759906    -0.48768610
