35
mv_ip1 conf 5 ff=UFF E=89.789
C      4.97202976     0.03689080    -0.02794339
N      3.52934400    -0.00640492     0.03254983
C      2.84789192    -1.18907981    -0.11860781
C      1.48267425    -1.26970407    -0.04709317
C      0.73250448    -0.07834019     0.20228744
C     -0.77822614    -0.07196152     0.12317428
C     -1.50568956    -1.24177739    -0.30469075
C     -2.88243760    -1.12182096    -0.45524293
N     -3.53525952     0.06060088    -0.23717031
C     -4.94791853     0.14826756    -0.54250894
C     -2.86424441     1.11266430     0.29171700
C     -1.51752755     1.08340468     0.51508315
C      1.46421369     1.11327343     0.43302663
C      2.84186328     1.10960805     0.38149311
F     -1.60363284     0.13742968    -0.29660804
P      0.11263985     0.16319985    -0.26163614
F      0.79357566    -0.75696874     1.01791743
F      0.37298769    -1.26388511    -1.23575306
F      1.72803230     0.66900664    -0.48667528
F     -1.39464485    -0.39394119     0.39057986
F     -0.00895780     1.44515886     0.87217522
H      5.29093063    -0.65632979    -0.82317696
H      5.33515213     1.07698642    -0.27971758
H      5.40341193    -0.31269849     0.95998116
H      3.37761859    -2.10803925    -0.33368184
H      1.07805137    -2.23021226    -0.22443666
H     -1.03995560    -2.15910280    -0.59425827
H     -3.34161240    -1.99162933    -0.86844983
H     -5.47640308    -0.37824580     0.27326523
H     -5.29019126     1.19770273    -0.55472829
H     -5.11777405    -0.29812213    -1.53316272
H     -3.34217199     2.05445149     0.50499020
H     -1.07968613     1.99255184     0.91122347
H      1.03147264     2.08802362     0.60547759
H      3.33193916     2.03904292     0.54641601
