35
mv_ip1 conf 8 ff=UFF E=107.791
C      4.99963181     0.00249436    -0.00468165
N      3.53930387    -0.03291365    -0.04838860
C      2.84192281     0.83055100     0.74328872
C      1.44572406     0.86940087     0.70578394
C      0.73142136    -0.03927142    -0.10815050
C     -0.74360225    -0.06659320    -0.05849329
C     -1.51493467    -0.36557463    -1.20352665
C     -2.89297629    -0.33693786    -1.13131398
N     -3.53240372    -0.00149206     0.04243031
C     -4.98888853    -0.02665730     0.16941950
C     -2.79034502     0.27367111     1.17620957
C     -1.40516413     0.21937097     1.15574915
C      1.47037521    -0.90362514    -0.94453858
C      2.87763236    -0.88370726    -0.90206934
F     -0.53967521    -1.21798752     0.57987351
P      0.32864690     0.10861642     0.30489641
F      1.67680501    -0.87859039     0.29093810
F      0.92838946     1.23788825    -0.71185889
F     -0.99755103     1.09120780     0.23598627
F     -0.11613388    -0.79133080    -1.02234479
F     -1.28048125     0.45019623     0.75229895
H      5.34405627     0.01230382     1.03782426
H      5.43801212    -0.86856620    -0.49844208
H      5.32830733     0.94689704    -0.50620770
H      3.35010183     1.50636278     1.39714422
H      0.92089453     1.57423675     1.34227025
H     -1.09019463    -0.57753923    -2.13464744
H     -3.48695489    -0.55926547    -1.96888927
H     -5.32888943     0.87567627     0.78003805
H     -5.29228420    -0.94389074     0.69577886
H     -5.47742550     0.08780682    -0.80764863
H     -3.29617788     0.52002418     2.12994495
H     -0.86222982     0.41684817     2.06381032
H      0.99007595    -1.62618616    -1.58150295
H      3.42501144    -1.56016121    -1.54119143
