35
mv_ip1 conf 7 ff=UFF E=98.685
C     -4.97295944    -0.53414103     0.06129216
N     -3.51059591    -0.39458847    -0.04128918
C     -2.80501407    -1.28112319    -0.82172450
C     -1.41537778    -1.11965033    -0.83498618
C     -0.74351916    -0.07452283    -0.04623045
C      0.76066720    -0.00857748    -0.18513747
C      1.46227561     0.49565695     0.94286255
C      2.81765545     0.71823531     0.88646666
N      3.53695842     0.42295684    -0.24034812
C      4.97486890     0.64437546    -0.28058357
C      2.87423893    -0.06556666    -1.36780506
C      1.49287505    -0.28760755    -1.37784049
C     -1.50158905     0.81012317     0.72774628
C     -2.87464167     0.59988138     0.72645830
F      1.54101513     0.78815578    -0.06721342
P      0.19361600    -0.19969266    -0.37549862
F     -1.20506898    -0.96011092    -0.89555254
F     -0.29426583     0.61167803     1.05660844
F     -0.83664701    -0.08480009     0.97977762
F     -0.42062388     1.19660406    -1.18343387
F      1.02197457    -1.35183419     0.48531238
H     -5.39545452     0.45483901    -0.13309350
H     -5.26018440    -0.88132472     1.08328126
H     -5.40427062    -1.26217446    -0.66172874
H     -3.26642814    -2.11385666    -1.43868323
H     -0.88634710    -1.89869655    -1.47886075
H      1.02954394     0.71056375     1.92798319
H      3.29503171     1.10379546     1.74966337
H      5.16381555     1.70760624    -0.26588898
H      5.48646761     0.14957379     0.58574264
H      5.45770257     0.17961410    -1.20995390
H      3.30453976    -0.32987418    -2.34571771
H      0.95267000    -0.62163190    -2.26350047
H     -1.10452908     1.60901637     1.22924888
H     -3.46839978     1.26709820     1.35123223
