35
mv_ip1 conf 1 ff=UFF E=34.098
C      4.97461599     0.48309418    -0.11230473
N      3.51588577     0.35477448    -0.13386770
C      2.94439279    -0.80122357    -0.58459379
C      1.55646889    -0.95734294    -0.57873617
C      0.73903872     0.07512608    -0.09395414
C     -0.73955799    -0.06979368    -0.07911952
C     -1.56835312     1.01299431    -0.41025690
C     -2.95626049     0.85793842    -0.39171495
N     -3.51769352    -0.33620747    -0.03835478
C     -4.97405611    -0.48884083    -0.06148715
C     -2.72923003    -1.40861742     0.26881773
C     -1.33734761    -1.29315490     0.26034291
C      1.34841161     1.24592817     0.38235455
C      2.73991670     1.36403340     0.36143249
F     -0.37647427    -1.26094924     1.03481944
P      0.00000010     0.00000003     0.00000007
F      1.14730417     0.55024853     1.08788608
F      1.15954148    -0.95383992    -0.74042503
F     -1.15954149     0.95384000     0.74042512
F      0.37647413     1.26094891    -1.03481959
F     -1.14730412    -0.55024832    -1.08788608
H      5.27938139     1.54568256    -0.22991575
H      5.43387726    -0.09047832    -0.94650580
H      5.36717677     0.09774893     0.85220898
H      3.56075877    -1.61118749    -0.95685733
H      1.12731638    -1.87340063    -0.96459957
H     -1.14785885     1.96691861    -0.70280294
H     -3.58089562     1.70047798    -0.66464004
H     -5.47580427     0.47167518     0.18643853
H     -5.30421438    -1.24124089     0.68730431
H     -5.29717713    -0.81665650    -1.07193837
H     -3.17385532    -2.36253083     0.52744832
H     -0.73546055    -2.15117815     0.53191895
H      0.75614124     2.05623386     0.78854674
H      3.19438272     2.26922747     0.74694044
