28
SMD(acetonitrile)-opt r2scan/def2-svp q=0 m=1
C -5.00886637 0.33906600 -0.17288698
N -3.56185238 0.34982515 -0.22074336
C -2.87290269 -0.52589469 -1.04604361
C -1.52136437 -0.67419094 -0.98779801
C -0.69418843 0.06141929 -0.03754975
C 0.69521134 -0.06213468 0.03690239
C 1.52176676 0.67254265 0.98836099
C 2.87329319 0.52442834 1.04680192
N 3.56284066 -0.34965298 0.22014064
C 5.00987842 -0.33712249 0.17370932
C 2.82927069 -1.04667052 -0.72785595
C 1.47660479 -0.93745615 -0.83002207
C -1.47512402 0.93804498 0.82838134
C -2.82771121 1.04795273 0.72611096
H -5.37670386 1.32485372 0.14644514
H -5.39683309 -0.42310366 0.52931638
H -5.41057968 0.12590978 -1.17384249
H -3.49133729 -1.08050630 -1.75688266
H -1.07021604 -1.37380429 -1.69512944
H 1.07004642 1.37033396 1.69714327
H 3.49133735 1.07774122 1.75900443
H 5.41124821 -0.14323864 1.17883615
H 5.37794893 -1.31637360 -0.16450278
H 5.39794357 0.43867755 -0.51334790
H 3.41323182 -1.70131372 -1.38043736
H 0.98851495 -1.54454053 -1.59595895
H -0.98650816 1.54649187 1.59289729
H -3.41122335 1.70426863 1.37742357
