40
bm_n_n_bis_2_methoxyethyl_pyromellitic_diimide conf 1 ff=MMFF E=-17.038
C      6.22091945    -1.68841922     1.25798577
O      5.42173197    -0.84430306     0.43996046
C      5.30763286    -1.35347711    -0.89098778
C      4.44803279    -0.40535754    -1.73202402
N      3.08748664    -0.30762213    -1.23096565
C      2.58015564     0.79399557    -0.59771499
O      3.08637236     1.87959686    -0.39263649
C      1.21500413     0.45171378    -0.19866961
C      0.27004296     1.20887703     0.47323321
C     -0.93651026     0.56361980     0.68671246
C     -2.14922756     1.03854983     1.35288856
O     -2.24793796     2.13762618     1.86193675
N     -3.05325518     0.01343981     1.29095450
C     -4.41632993     0.09761574     1.78758190
C     -5.44352064     0.14727086     0.65285773
O     -5.24211581     1.32954588    -0.12519211
C     -6.18104454     1.42447688    -1.18811205
C     -2.54484632    -1.08527838     0.65614952
O     -3.07224683    -2.15731326     0.43099409
C     -1.17956487    -0.74507237     0.25986501
C     -0.23568029    -1.50235149    -0.41301472
C      0.97000459    -0.85609613    -0.62710574
C      2.18322819    -1.33108980    -1.28986081
O      2.30411978    -2.43838620    -1.77708103
H      7.23544098    -1.76355020     0.85500320
H      6.27353093    -1.24932657     2.25778864
H      5.77115195    -2.68287222     1.33614327
H      4.86607481    -2.35574597    -0.85952326
H      6.30655862    -1.42366935    -1.33647589
H      4.89348364     0.59523377    -1.73717542
H      4.40073466    -0.77841910    -2.76088604
H      0.45922084     2.22307748     0.80475521
H     -4.50821325     0.99253312     2.41233512
H     -4.60371830    -0.78750473     2.40517112
H     -6.45208072     0.16581059     1.08146273
H     -5.35303100    -0.73256810     0.00617334
H     -5.98017338     2.34434078    -1.74369919
H     -7.20132482     1.46873675    -0.79522179
H     -6.07529641     0.57457265    -1.86915265
H     -0.42480974    -2.51629409    -0.74445334
