40
bm_n_n_bis_2_methoxyethyl_pyromellitic_diimide conf 2 ff=MMFF E=-17.038
C      6.39150940     1.02966154     0.64215201
O      5.20639535     0.89187901     1.41475808
C      5.10555376    -0.40896230     1.99900426
C      3.82060890    -0.50231395     2.82688595
N      2.62881581    -0.34504815     2.01043376
C      1.82444900     0.76151836     2.03181092
O      1.87676164     1.75199858     2.73398950
C      0.78971639     0.54238559     1.02119648
C     -0.26565232     1.35411431     0.64041548
C     -1.06367728     0.82633643    -0.36073769
C     -2.24837093     1.38775301    -1.00984793
O     -2.70157153     2.48394367    -0.74561670
N     -2.66248593     0.46299770    -1.92924362
C     -3.85178983     0.60731321    -2.75169516
C     -4.97186574    -0.34418268    -2.32126347
O     -5.38310402    -0.02945275    -0.98877434
C     -6.43076608    -0.88277981    -0.54759780
C     -1.85854328    -0.64243683    -1.94738103
O     -1.93848638    -1.64154422    -2.63549331
C     -0.82243683    -0.42279184    -0.93990167
C      0.23185878    -1.23548574    -0.55892043
C      1.02860471    -0.70760928     0.44292756
C      2.21429813    -1.26659337     1.08979916
O      2.69415153    -2.34904660     0.81386326
H      6.41463509     2.03970903     0.22448584
H      7.27664049     0.89038857     1.27019631
H      6.39661873     0.31024189    -0.18231483
H      5.96815418    -0.57738664     2.65382728
H      5.11412372    -1.16473983     1.20576172
H      3.77134629    -1.48589087     3.30659409
H      3.82022540     0.27136876     3.60216097
H     -0.45175839     2.32281641     1.08905589
H     -4.19924179     1.64409467    -2.68846328
H     -3.57164050     0.38915127    -3.78798265
H     -4.63506185    -1.38606647    -2.36059846
H     -5.82498330    -0.22509817    -2.99894245
H     -7.31022410    -0.77296390    -1.18930473
H     -6.70326697    -0.59484119     0.47123008
H     -6.09745767    -1.92497423    -0.53902219
H      0.41791741    -2.20394178    -1.00744686
