40
bm_n_n_bis_2_methoxyethyl_pyromellitic_diimide conf 5 ff=MMFF E=-17.016
C     -5.21480599     2.23395751     1.72660715
O     -4.83025489     0.99077401     1.15480463
C     -5.24357715     0.88699942    -0.20973992
C     -4.81377077    -0.46984561    -0.77485326
N     -3.36896477    -0.62484949    -0.79115908
C     -2.54028741     0.08468997    -1.61485410
O     -2.82030128     0.89979669    -2.47234732
C     -1.17468466    -0.31391860    -1.27867126
C      0.03054798     0.10827672    -1.81376738
C      1.14688911    -0.48454062    -1.24851289
C      2.56431497    -0.29047093    -1.54854537
O      2.98252906     0.47331432    -2.39697375
N      3.25881369    -1.11195235    -0.70506137
C      4.70984926    -1.16978291    -0.65114314
C      5.31864122     0.11073293    -0.07255371
O      4.88981058     0.27642429     1.28104747
C      5.43709935     1.45110445     1.86495392
C      2.43103605    -1.83029840     0.11389816
O      2.69698033    -2.66816543     0.95300554
C      1.06468295    -1.43027399    -0.22246027
C     -0.14118508    -1.85276208     0.31149829
C     -1.25814118    -1.25956123    -0.25263604
C     -2.67652085    -1.45492633     0.04754565
O     -3.08367299    -2.24332926     0.87790433
H     -6.30356408     2.34202557     1.71177694
H     -4.87557450     2.25453613     2.76568096
H     -4.74572859     3.06373368     1.18923021
H     -4.80172026     1.70725672    -0.78632853
H     -6.33524990     0.96892862    -0.26234958
H     -5.17267721    -0.56116819    -1.80578437
H     -5.24726306    -1.27724763    -0.17500423
H      0.09482829     0.84257194    -2.60773366
H      5.07806118    -1.31455793    -1.67262880
H      5.00501760    -2.03073327    -0.04182191
H      5.01648745     0.98566708    -0.65881888
H      6.41155431     0.03209555    -0.09678380
H      5.07776748     1.52305338     2.89494371
H      5.10845778     2.33952546     1.31719539
H      6.52997249     1.39877366     1.87849124
H     -0.20539651    -2.58585384     1.10695679
