40
bm_n_n_bis_2_methoxyethyl_pyromellitic_diimide conf 4 ff=MMFF E=-17.016
C      5.41965000     2.10386902     1.35781124
O      4.89513242     1.35075241     0.27243603
C      5.31414340    -0.01494100     0.32627155
C      4.73072751    -0.77860134    -0.86602178
N      3.27824633    -0.81393332    -0.83762065
C      2.47641732    -0.10919544    -1.69339279
O      2.77103094     0.59031530    -2.64246375
C      1.09745207    -0.37187380    -1.28164985
C     -0.09237869     0.09881439    -1.81125458
C     -1.22901038    -0.36100108    -1.16754365
C     -2.63913961    -0.08528862    -1.44249008
O     -3.01867677     0.61737120    -2.35849727
N     -3.35991333    -0.78291045    -0.51203854
C     -4.80780975    -0.73402620    -0.39818635
C     -5.26460859     0.03448903     0.84512902
O     -4.84016374     1.39624164     0.74993145
C     -5.24890906     2.15371265     1.88108500
C     -2.55701987    -1.49368906     0.33577140
O     -2.86533319    -2.21476349     1.26480079
C     -1.17884118    -1.23096726    -0.07456835
C      0.01035000    -1.70282048     0.45490449
C      1.14636897    -1.24183411    -0.18861304
C      2.55557781    -1.51758217     0.08501383
O      2.94658652    -2.24192394     0.97974384
H      5.06913085     3.13499973     1.26251536
H      5.06401713     1.70041159     2.31074515
H      6.51355210     2.10235688     1.33194031
H      6.40834004    -0.05777882     0.28012896
H      4.98497492    -0.45868385     1.27245050
H      5.09200303    -1.81250517    -0.84376657
H      5.05279530    -0.30988447    -1.80208225
H     -0.13078432     0.77328044    -2.65855712
H     -5.21554631    -0.26189525    -1.29845045
H     -5.17479667    -1.76452728    -0.34021703
H     -6.35842027     0.00187485     0.90629950
H     -4.84858308    -0.41273975     1.75475713
H     -4.89980427     3.18157631     1.75147874
H     -6.34005883     2.16240803     1.96238387
H     -4.80550943     1.74651859     2.79482749
H      0.04881067    -2.37562570     1.30317177
