40
bm_n_n_bis_2_methoxyethyl_pyromellitic_diimide conf 8 ff=MMFF E=-16.639
C      6.22983428     1.41639768    -0.76000830
O      5.34680372     0.72381514     0.11236765
C      5.43956074    -0.69253385    -0.05867937
C      4.47913631    -1.39112393     0.90813951
N      3.09088574    -1.05352648     0.64276112
C      2.41274695    -1.45916881    -0.47281282
O      2.78736303    -2.16953202    -1.38554778
C      1.08186182    -0.85948869    -0.39454348
C      0.01295849    -0.95244998    -1.26972783
C     -1.11012173    -0.24299785    -0.87915137
C     -2.41076803    -0.11218115    -1.53402301
O     -2.70677606    -0.65845088    -2.57877752
N     -3.16641928     0.70658255    -0.74169974
C     -4.56591674     0.99901353    -0.99446355
C     -5.47080731    -0.18527441    -0.63078786
O     -5.31770012    -0.60407337     0.72811619
C     -5.98899468     0.23845000     1.65640675
C     -2.49421988     1.10172720     0.38248555
O     -2.86280632     1.81230871     1.29743325
C     -1.16178105     0.50359824     0.30192041
C     -0.09265984     0.59574225     1.17690750
C      1.03164889    -0.11173853     0.78545980
C      2.32988221    -0.24842889     1.44549332
O      2.59574817     0.26636013     2.51378144
H      6.11681466     2.48934578    -0.58341153
H      7.26768285     1.13573424    -0.55655614
H      5.97951200     1.20570408    -1.80417554
H      5.20242423    -0.94893611    -1.09719919
H      6.46459967    -1.01486112     0.15729428
H      4.58678855    -2.47610466     0.80233648
H      4.71844309    -1.10930913     1.93913685
H      0.05146483    -1.53319809    -2.18353130
H     -4.68225555     1.22476939    -2.06021520
H     -4.84560800     1.88760470    -0.42022736
H     -5.20991272    -1.04854683    -1.25264767
H     -6.52094718     0.05272787    -0.83617936
H     -7.06257095     0.25862081     1.44613563
H     -5.84009572    -0.17218323     2.65876345
H     -5.58373823     1.25287161     1.63709824
H     -0.13206084     1.17273411     2.09321404
