40
bm_n_n_bis_2_methoxyethyl_pyromellitic_diimide conf 3 ff=MMFF E=-17.038
C     -6.40933660     1.11069045    -0.21246144
O     -5.44971509     0.30302408     0.45626902
C     -5.39926816    -1.01743901    -0.08919528
C     -4.36064795    -1.84788394     0.67028853
N     -3.01756453    -1.31200199     0.52657093
C     -2.31512395    -1.33289771    -0.64593873
O     -2.62533135    -1.80820536    -1.72109414
C     -1.05151351    -0.64440931    -0.38894231
C      0.00981251    -0.38946815    -1.24085130
C      1.06023933     0.29812838    -0.65692368
C      2.33018692     0.73530857    -1.23388193
O      2.65733010     0.53879117    -2.38820581
N      3.01614490     1.36860634    -0.23536634
C      4.35934778     1.90027614    -0.39294273
C      5.40492924     0.79281257    -0.55253855
O      5.44221432    -0.00614371     0.63235880
C      6.40764635    -1.04479919     0.53471405
C      2.31415985     1.39252215     0.93877064
O      2.60054733     1.88915115     2.01030440
C      1.05113502     0.70063851     0.68167725
C     -0.01124238     0.44630035     1.53277477
C     -1.06272845    -0.24035131     0.94917604
C     -2.33209548    -0.68032782     1.52810583
O     -2.63544481    -0.50351217     2.69153106
H     -7.41055996     0.68181131    -0.10801838
H     -6.15149376     1.21418581    -1.27082909
H     -6.40432216     2.10274092     0.24687200
H     -6.38324376    -1.48846242     0.01648409
H     -5.14982474    -0.96072836    -1.15459084
H     -4.61486933    -1.87840243     1.73521873
H     -4.35805920    -2.87000144     0.27628577
H      0.01768771    -0.70202941    -2.27812862
H      4.36657561     2.53448228    -1.28608333
H      4.59882536     2.51517975     0.48123164
H      5.17009874     0.15581485    -1.41253673
H      6.38931502     1.24789991    -0.71103017
H      7.40911570    -0.62544135     0.39872973
H      6.16413672    -1.71693917    -0.29369808
H      6.39205447    -1.61785827     1.46559294
H     -0.01911781     0.75893785     2.57031675
