40
bm_n_n_bis_2_methoxyethyl_pyromellitic_diimide conf 7 ff=MMFF E=-16.639
C      5.64497660    -0.52235097     2.47514320
O      5.11476306    -1.07971136     1.27913721
C      5.49587449    -0.36226536     0.10207300
C      4.68872445     0.92713511    -0.09687462
N      3.26058481     0.66894560    -0.13875715
C      2.42368789     0.82783733     0.93182277
O      2.65451618     1.27876764     2.03694358
C      1.10902514     0.34771683     0.50662986
C     -0.08570167     0.29564482     1.20450490
C     -1.14699106    -0.22984332     0.48662076
C     -2.53791718    -0.43922384     0.88814664
O     -2.96223090    -0.17580829     1.99607330
N     -3.17618768    -0.98444161    -0.19214763
C     -4.59628801    -1.29010181    -0.23118838
C     -5.37108877    -0.32609825    -1.13427403
O     -5.27577661     1.00158734    -0.61266715
C     -5.98970615     1.93277952    -1.41493906
C     -2.33506545    -1.15590189    -1.25612021
O     -2.57219641    -1.60677213    -2.35998760
C     -1.02152892    -0.67363922    -0.83298660
C      0.17299664    -0.62230043    -1.53128195
C      1.23325966    -0.09462083    -0.81394126
C      2.62559749     0.10769265    -1.21157831
O      3.07511986    -0.19364441    -2.30000346
H      5.27096356     0.49069381     2.64101111
H      5.32611675    -1.14802356     3.31321932
H      6.73862947    -0.51842644     2.44205963
H      6.57047540    -0.14680685     0.12293596
H      5.32026375    -1.03697585    -0.74287740
H      4.98164315     1.39043383    -1.04549440
H      4.89117590     1.63649277     0.71145291
H     -0.18280449     0.63669266     2.22839298
H     -4.70949820    -2.31088916    -0.61216493
H     -4.99353964    -1.24546450     0.78853761
H     -6.42452769    -0.62736710    -1.16163477
H     -4.97418951    -0.34418327    -2.15537399
H     -5.88296270     2.92486998    -0.96824026
H     -5.57786633     1.95955256    -2.42835349
H     -7.05281870     1.67565516    -1.44613382
H      0.27049185    -0.96763716    -2.55354663
