40
bm_n_n_bis_2_methoxyethyl_pyromellitic_diimide conf 6 ff=MMFF E=-16.642
C     -6.17337400     0.99108422    -1.43267302
O     -5.33216682    -0.03228597    -0.91736806
C     -5.43797081    -0.13592969     0.50459594
C     -4.52292039    -1.25598728     1.00791860
N     -3.12148173    -0.98341290     0.73718095
C     -2.37939000    -1.64258791    -0.20430221
O     -2.67673152    -2.57933591    -0.91916054
C     -1.05636714    -1.01867830    -0.20186057
C      0.06225959    -1.30776230    -0.96545077
C      1.16081415    -0.50863625    -0.69822134
C      2.49802967    -0.52308694    -1.28964827
O      2.85718797    -1.30473594    -2.14837771
N      3.20493359     0.47690010    -0.68132200
C      4.61675496     0.71907372    -0.91815242
C      5.49912862    -0.32260082    -0.21819196
O      5.26810547    -0.38792259     1.19177918
C      5.88668900     0.66963113     1.91359187
C      2.46746485     1.12521667     0.27106153
O      2.77947334     2.04473954     1.00263327
C      1.14293959     0.50492630     0.26479440
C      0.02507827     0.79282257     1.02961376
C     -1.07367600    -0.00579619     0.76138125
C     -2.40882781     0.00523093     1.35662662
O     -2.75983084     0.77599438     2.22884233
H     -5.88816632     1.96414075    -1.02138806
H     -7.22166499     0.77693741    -1.20349744
H     -6.05221325     1.02187404    -2.51874363
H     -6.47448227    -0.37094424     0.77228183
H     -5.16677665     0.82323177     0.95953057
H     -4.64148573    -1.35876356     2.09205146
H     -4.79559438    -2.20274440     0.52943780
H      0.07576656    -2.09534191    -1.70950755
H      4.79644170     0.67348141    -1.99794424
H      4.86060651     1.72717541    -0.56912560
H      5.27428333    -1.31823554    -0.61589788
H      6.55935581    -0.12877695    -0.41812248
H      6.97051069     0.65030861     1.76478180
H      5.48444106     1.64119560     1.61703145
H      5.68052723     0.52242589     2.97723706
H      0.01232869     1.57717512     1.77688958
