40
bm_n_n_bis_2_methoxyethyl_pyromellitic_diimide conf 0 ff=MMFF E=-17.107
C     -5.35597569     2.29254473    -1.13260864
O     -4.85587911     1.45070502    -0.10221362
C     -5.31525079     0.10506837    -0.25100777
C     -4.75339273    -0.75774605     0.88256431
N     -3.30277934    -0.83548513     0.84528261
C     -2.47720967    -0.21358865     1.74136628
O     -2.74603638     0.43059969     2.73622754
C     -1.10840931    -0.48928508     1.30562049
C      0.09620420    -0.08984031     1.86000044
C      1.21635395    -0.53843212     1.18113528
C      2.63426498    -0.31949246     1.46196746
O      3.05127076     0.33334408     2.39890276
N      3.33211760    -0.97501358     0.48598047
C      4.78106739    -0.95008821     0.37811046
C      5.30659123     0.42920873    -0.02991323
O      4.82003346     0.76161256    -1.33247641
C      5.28584048     2.03572498    -1.75693621
C      2.50671499    -1.60722777    -0.40300880
O      2.77632212    -2.29960158    -1.36473941
C      1.13787674    -1.32918661     0.03112492
C     -0.06670927    -1.73032631    -0.52208971
C     -1.18685948    -1.28170434     0.15675467
C     -2.60483369    -1.49674380    -0.12675936
O     -3.02188077    -2.14703508    -1.06544472
H     -5.01017834     1.94620524    -2.11128635
H     -4.97577893     3.30386367    -0.96569182
H     -6.44951138     2.32116561    -1.10700698
H     -6.41017836     0.09161906    -0.20442076
H     -5.00051999    -0.28037942    -1.22717664
H     -5.05854036    -0.34587390     1.85049118
H     -5.14657308    -1.77595476     0.78970767
H      0.15565112     0.52484694     2.75029669
H      5.19510594    -1.21903181     1.35596646
H      5.09168631    -1.69962894    -0.35764725
H      6.40212938     0.40499984    -0.05059921
H      4.98567914     1.19568977     0.68426746
H      4.93298468     2.81785393    -1.07789052
H      4.88604936     2.23335077    -2.75507814
H      6.37874362     2.04612335    -1.80937068
H     -0.12619073    -2.34286043    -1.41386647
