40
bm_n_n_bis_2_methoxyethyl_pyromellitic_diimide conf 9 ff=MMFF E=-16.608
C      5.57036675     1.67066884     0.87203521
O      4.49250450     1.37479539     1.75105237
C      4.67290182     0.15715193     2.47931959
C      4.37592369    -1.08990304     1.63659560
N      3.03164760    -1.06319053     1.08869216
C      1.90896722    -1.30630196     1.83045611
O      1.81586391    -1.64869023     2.99298727
C      0.76653358    -1.06627234     0.94987912
C     -0.58997544    -1.17687911     1.20391232
C     -1.40248865    -0.86061365     0.12790710
C     -2.86144973    -0.86477565     0.02219890
O     -3.59763614    -1.19895693     0.92955055
N     -3.15968767    -0.46692178    -1.25228837
C     -4.51090456    -0.27806504    -1.75261139
C     -4.85230848     1.20169982    -1.94973143
O     -4.81376135     1.87435602    -0.68892451
C     -5.12711666     3.25453957    -0.82058051
C     -2.03688575    -0.21392737    -1.99004148
O     -1.94154757     0.14934790    -3.14631578
C     -0.89469684    -0.46296446    -1.11229767
C      0.46176286    -0.35120504    -1.36634478
C      1.27407627    -0.66734545    -0.29040322
C      2.73281326    -0.66155370    -0.18431659
O      3.47551350    -0.35849682    -1.09789017
H      6.50482475     1.76710142     1.43299451
H      5.67388001     0.90542492     0.09913472
H      5.35945940     2.62597375     0.38374582
H      5.68694472     0.11198630     2.89319860
H      3.98132968     0.19771696     3.32791001
H      5.08757899    -1.17420218     0.80956312
H      4.47164254    -1.98015665     2.26794892
H     -0.98456009    -1.48224232     2.16575831
H     -4.58853134    -0.79734039    -2.71400876
H     -5.21404815    -0.73165694    -1.04587628
H     -5.86053430     1.28527568    -2.37127355
H     -4.14368228     1.67710158    -2.63703880
H     -5.08501069     3.71317696     0.17090987
H     -4.39824736     3.75240354    -1.46727543
H     -6.13697898     3.38149141    -1.22226943
H      0.85551699    -0.03925371    -2.32626202
