21
ferrocene/neu q=0 m=1 E=-44918.876256eV conf=0 model=uma-s-1p2p1
Fe      -0.00000004      -0.00000011       0.00000003       0.00002283       0.00000032      -0.00000760
C        1.20813609      -0.00031860       1.66880143       0.00529442      -0.00043722       0.00631312
H        2.28519692      -0.00050063       1.64428399      -0.00581485       0.00106692      -0.00146562
C        0.37363730       1.14890664       1.66880155       0.00226362       0.00511690       0.00631455
H        0.70664101       2.17319719       1.64428396      -0.00286153      -0.00531206      -0.00146619
C       -0.97721520       0.71038242       1.66880149      -0.00451448       0.00385516       0.00633496
H       -1.84846903       1.34361017       1.64428397       0.00429732      -0.00444573      -0.00146336
C       -0.97758982      -0.70986735       1.66880154      -0.00483175      -0.00324231       0.00632331
H       -1.84905739      -1.34279999       1.64428397       0.00550634       0.00271041      -0.00146565
C        0.37303133      -1.14910302       1.66880153       0.00145705      -0.00520165       0.00631488
H        0.70568880      -2.17350684       1.64428396      -0.00081518       0.00589337      -0.00146499
C        1.20813495       0.00031794      -1.66880147       0.00553975       0.00040507      -0.00632145
H        2.28519758       0.00050068      -1.64428398      -0.00592647      -0.00106338       0.00146555
C        0.37303204       1.14910459      -1.66880160       0.00129784       0.00529310      -0.00631207
H        0.70568858       2.17350620      -1.64428397      -0.00080465      -0.00591364       0.00146686
C       -0.97759016       0.70986703      -1.66880149      -0.00462513       0.00294855      -0.00632230
H       -1.84905733       1.34280001      -1.64428400       0.00538183      -0.00260478       0.00146400
C       -0.97721498      -0.71038250      -1.66880148      -0.00428955      -0.00358234      -0.00631958
H       -1.84846902      -1.34361017      -1.64428397       0.00417646       0.00434760       0.00146702
C        0.37363741      -1.14890645      -1.66880149       0.00208607      -0.00513090      -0.00632050
H        0.70664101      -2.17319722      -1.64428397      -0.00284017       0.00529671       0.00146511
