54
conf 3 ff=MMFF E=180.135 Rg=6.03 smiles=Cc1ccc(C[n+]2ccc(-c3cc[n+](Cc4ccc(C)cc4)cc3)cc2)cc1
C      8.84415336     0.89707254     0.39050838
C      7.64792473     0.05015490     0.06231176
C      6.81688222    -0.42820659     1.07983576
C      5.72837046    -1.25011946     0.77969046
C      5.45729520    -1.61475439    -0.54759135
C      4.27334808    -2.48224160    -0.88061322
C      6.30703273    -1.15271848    -1.56360436
C      7.39350219    -0.33027666    -1.25875754
N      3.00132397    -1.74076016    -0.65621143
C      2.19509879    -2.07720488     0.37467093
C      1.00422958    -1.38484997     0.60100036
C      0.62002647    -0.33241336    -0.23827384
C     -0.63373567     0.41478558    -0.01491622
C     -0.93293546     0.98716632     1.22701286
C     -2.12365159     1.69014331     1.41845043
N     -3.01180231     1.82673911     0.40935254
C     -4.28085406     2.57442113     0.62939765
C     -5.45620001     1.63425560     0.63351988
C     -6.39761940     1.67099812    -0.40549946
C     -7.47830321     0.78671011    -0.41362669
C     -7.63606729    -0.15213250     0.61018902
C     -8.82525047    -1.06964052     0.61899080
C     -6.71274525    -0.17522287     1.65944041
C     -5.62965963     0.70657803     1.67136270
C     -2.75582977     1.28931150    -0.80537734
C     -1.57538421     0.58251121    -1.03639683
C      1.47754618    -0.01826111    -1.29863865
C      2.66102041    -0.73162494    -1.49041277
H      9.05667789     1.60124688    -0.42078659
H      8.66757689     1.48855194     1.29477372
H      9.72065016     0.26121089     0.54859540
H      7.02549103    -0.16865179     2.11730169
H      5.11585280    -1.60856426     1.60412727
H      4.27185791    -2.79741823    -1.93083503
H      4.27500227    -3.38882444    -0.26564541
H      6.15383034    -1.43322801    -2.60476672
H      8.05360382     0.00643128    -2.05800816
H      2.50752250    -2.89704759     1.01659294
H      0.37584208    -1.68968695     1.43730969
H     -0.23714246     0.90516436     2.06144601
H     -2.37042676     2.14149341     2.37612400
H     -4.34809684     3.31949942    -0.17242624
H     -4.21918041     3.11786620     1.57874128
H     -6.32125258     2.39362265    -1.21656584
H     -8.20991826     0.83925116    -1.21967383
H     -8.61101772    -1.98439231     1.18222529
H     -9.09062291    -1.36980073    -0.40036937
H     -9.68222980    -0.56606785     1.07709360
H     -6.84374642    -0.87806322     2.48141438
H     -4.94305548     0.66117342     2.51366760
H     -3.50383437     1.42164587    -1.58328024
H     -1.41287315     0.15110506    -2.02353444
H      1.24675580     0.79845487    -1.98181820
H      3.34501765    -0.49539200    -2.30192336
