54
conf 5 ff=MMFF E=180.146 Rg=6.02 smiles=Cc1ccc(C[n+]2ccc(-c3cc[n+](Cc4ccc(C)cc4)cc3)cc2)cc1
C     -8.71215158    -1.68008115     0.24958137
C     -7.59898772    -0.67473140     0.17147184
C     -6.80881135    -0.40385853     1.29284417
C     -5.80159020     0.56188906     1.23502644
C     -5.57420501     1.28199032     0.05334801
C     -4.47538605     2.30718208    -0.02249188
C     -6.38311142     1.02304505    -1.06315192
C     -7.38763786     0.05524742    -1.00136577
N     -3.14459477     1.64101337    -0.06941806
C     -2.75036730     1.01670491    -1.20269864
C     -1.51095320     0.38022541    -1.27045801
C     -0.65320050     0.37349442    -0.16509462
C      0.65979208    -0.29819606    -0.21510554
C      1.59699536     0.00660812    -1.20822816
C      2.83556499    -0.63456174    -1.23576348
N      3.15246102    -1.56349458    -0.30493763
C      4.48423832    -2.22820107    -0.35434043
C      5.57361368    -1.26096976     0.02464077
C      5.66832822    -0.76310428     1.33260949
C      6.67126260     0.14761845     1.67277852
C      7.59160184     0.58222870     0.71424581
C      8.69735316     1.52600268     1.09267808
C      7.51425403     0.06954056    -0.58441130
C      6.51351098    -0.84156986    -0.92913923
C      2.26970678    -1.88893001     0.66491039
C      1.02203688    -1.26642596     0.72823420
C     -1.09462418     1.03072996     0.98911474
C     -2.34045500     1.65960412     1.01639259
H     -9.63160726    -1.19343034     0.58918533
H     -8.45990768    -2.48728838     0.94516056
H     -8.89482386    -2.13693629    -0.72817973
H     -6.98729530    -0.94004032     2.22389836
H     -5.21957294     0.74821887     2.13493271
H     -4.55159812     2.92997499    -0.92162905
H     -4.50976580     2.97849874     0.84262511
H     -6.26275593     1.57616154    -1.99314996
H     -8.01889522    -0.12101754    -1.87235976
H     -3.43546673     1.02331702    -2.04671987
H     -1.23513801    -0.12469401    -2.19561639
H      1.38447461     0.76064730    -1.96516680
H      3.58168337    -0.40360897    -1.99203654
H      4.48221949    -3.08996927     0.32203384
H      4.60498713    -2.61059866    -1.37499987
H      4.98234407    -1.08317932     2.11373903
H      6.74335737     0.51101592     2.69699986
H      9.58218996     0.96105835     1.40167947
H      8.96336404     2.17154363     0.24984509
H      8.38975983     2.17815517     1.91654624
H      8.24739392     0.37150499    -1.33303609
H      6.49877440    -1.22421236    -1.94894121
H      2.56695551    -2.64323607     1.38896976
H      0.33320542    -1.55876685     1.52011582
H     -0.46982411     1.07290170     1.88070246
H     -2.69870194     2.17497996     1.90390170
