54
conf 8 ff=MMFF E=180.176 Rg=5.72 smiles=Cc1ccc(C[n+]2ccc(-c3cc[n+](Cc4ccc(C)cc4)cc3)cc2)cc1
C      6.98758071    -3.49278613    -0.45351860
C      6.43567216    -2.09598605    -0.48288680
C      5.97131916    -1.49500919     0.69112887
C      5.49512245    -0.18207313     0.67603108
C      5.48203699     0.55640830    -0.51699542
C      4.94688764     1.96310377    -0.54562641
C      5.97123344    -0.04116205    -1.68823547
C      6.44630345    -1.35435317    -1.66828870
N      3.47301155     1.96469684    -0.33184071
C      2.95896566     2.41574330     0.83363778
C      1.58073919     2.40416239     1.05434815
C      0.70514320     1.93050677     0.07053476
C     -0.75395062     1.89216537     0.28944928
C     -1.30613548     1.24734389     1.40178630
C     -2.68847536     1.20382955     1.58332647
N     -3.52034252     1.78628114     0.69001332
C     -4.99269550     1.71074418     0.89987202
C     -5.49482316     0.32460904     0.59688800
C     -5.56581534    -0.13799646    -0.72575528
C     -6.00738607    -1.43438878    -0.99979564
C     -6.37631524    -2.29399934     0.03958357
C     -6.89279011    -3.67273368    -0.25818582
C     -6.32713244    -1.82847208     1.35716608
C     -5.88772956    -0.53256855     1.63588783
C     -3.02303215     2.42578597    -0.39158858
C     -1.64571261     2.48729915    -0.61018659
C      1.27396558     1.48247099    -1.12693468
C      2.65687883     1.50616329    -1.30834218
H      8.05014641    -3.46950793    -0.19002169
H      6.87481849    -3.97890073    -1.42915935
H      6.45184449    -4.10693491     0.27918089
H      5.99138924    -2.05019972     1.62869396
H      5.15456002     0.24841246     1.61527518
H      5.42366832     2.57356140     0.22921237
H      5.12550271     2.45583237    -1.50891202
H      6.00812135     0.50213600    -2.63161520
H      6.83820792    -1.79756816    -2.58372906
H      3.65317475     2.77780683     1.58774824
H      1.20205323     2.77785200     2.00521626
H     -0.66975184     0.74968846     2.13268139
H     -3.13690742     0.69554392     2.43331138
H     -5.48434270     2.45124073     0.25924340
H     -5.18163222     2.00198994     1.94003106
H     -5.30006557     0.49978041    -1.56627186
H     -6.07490775    -1.77262576    -2.03326957
H     -6.46284307    -4.05901289    -1.18863077
H     -6.61979303    -4.37113908     0.54051472
H     -7.98294572    -3.65073384    -0.35456776
H     -6.64480767    -2.47622086     2.17458322
H     -5.87728026    -0.20855171     2.67564276
H     -3.72979185     2.88017538    -1.08124774
H     -1.28089675     3.01403455    -1.49140645
H      0.65103309     1.08693329    -1.92849419
H      3.11892200     1.14899709    -2.22548175
