54
conf 6 ff=MMFF E=180.157 Rg=5.74 smiles=Cc1ccc(C[n+]2ccc(-c3cc[n+](Cc4ccc(C)cc4)cc3)cc2)cc1
C     -7.01065159     3.42883465     1.30079031
C     -6.46690763     2.13873680     0.75611773
C     -5.88731465     1.19755354     1.61180011
C     -5.41851017    -0.02055652     1.11439592
C     -5.52861588    -0.32107076    -0.25139072
C     -5.00744202    -1.62310859    -0.79831901
C     -6.13269984     0.61520972    -1.10320068
C     -6.59956613     1.83203559    -0.60126954
N     -3.52092205    -1.66814250    -0.71788776
C     -2.78438848    -0.87798169    -1.53226931
C     -1.39078243    -0.89566459    -1.47082136
C     -0.72828970    -1.73018521    -0.56363047
C      0.74504067    -1.75118730    -0.47271755
C      1.54534681    -1.96615926    -1.60087382
C      2.93727535    -1.97126701    -1.49509329
N      3.53749617    -1.76369553    -0.30231071
C      5.02367410    -1.75938006    -0.20630033
C      5.53391660    -0.36319700     0.03044812
C      5.44853180     0.61185302    -0.97484539
C      5.90480655     1.91121583    -0.74170135
C      6.44703680     2.26216432     0.49833581
C      6.97707637     3.64847635     0.73014121
C      6.55420582     1.28671259     1.49429940
C      6.09938681    -0.01385761     1.26584819
C      2.79642861    -1.55637041     0.81026307
C      1.40287988    -1.54782803     0.74558984
C     -1.52397403    -2.53631833     0.25876056
C     -2.91604257    -2.49301117     0.16507746
H     -6.42712463     3.76382936     2.16490841
H     -8.05276603     3.29560393     1.60673416
H     -6.96043315     4.22240079     0.54779563
H     -5.81042259     1.40971243     2.67742693
H     -4.98563394    -0.72719078     1.81871038
H     -5.42425294    -2.46927270    -0.24082840
H     -5.26804247    -1.76399727    -1.85426824
H     -6.26711569     0.41412386    -2.16511704
H     -7.08107202     2.54136113    -1.27396303
H     -3.31763288    -0.22741692    -2.22118593
H     -0.83290549    -0.23077491    -2.12938695
H      1.09670535    -2.14164303    -2.57817379
H      3.57336366    -2.13557804    -2.36128973
H      5.44505510    -2.17309742    -1.12932736
H      5.28825066    -2.44212703     0.61022112
H      5.04517178     0.38079135    -1.95811192
H      5.84741851     2.65341005    -1.53710177
H      6.93754864     3.91049475     1.79238359
H      6.37731627     4.38865783     0.19068242
H      8.01438573     3.71408864     0.38874988
H      7.00561184     1.53706711     2.45432976
H      6.21239023    -0.74361090     2.06679290
H      3.32587187    -1.38758647     1.74480031
H      0.84119662    -1.35872760     1.65983647
H     -1.07141208    -3.21696231     0.97921605
H     -3.54846754    -3.11151000     0.79692970
