54
conf 0 ff=MMFF E=180.131 Rg=6.03 smiles=Cc1ccc(C[n+]2ccc(-c3cc[n+](Cc4ccc(C)cc4)cc3)cc2)cc1
C      8.60022904     2.19718233     0.18702144
C      7.54954087     1.13843846     0.00977015
C      6.68579062     1.17586874    -1.08904755
C      5.73508591     0.17049768    -1.27925431
C      5.63739325    -0.89668241    -0.37375471
C      4.60000649    -1.97132717    -0.55981105
C      6.52121544    -0.94369746     0.71457164
C      7.46997989     0.06403802     0.90075049
N      3.23569739    -1.42889072    -0.31025041
C      2.38402514    -1.23926836    -1.34196440
C      1.10712490    -0.71956789    -1.12325811
C      0.68279439    -0.39062610     0.16926790
C     -0.66115290     0.16509013     0.42167082
C     -1.53090869    -0.42036514     1.34832734
C     -2.79865320     0.11801567     1.57050070
N     -3.20957834     1.21653049     0.89639021
C     -4.56867036     1.76950183     1.15143982
C     -5.62622693     0.85722019     0.59047691
C     -6.48377677     0.15324172     1.44849520
C     -7.45396915    -0.70745412     0.93076941
C     -7.58169830    -0.88579772    -0.44978644
C     -8.65674851    -1.77659089    -1.00387349
C     -6.74396719    -0.16780536    -1.30825914
C     -5.77188828     0.69383701    -0.79508208
C     -2.39478381     1.81242197    -0.00194010
C     -1.12083278     1.30110497    -0.25465502
C      1.58942876    -0.60897500     1.21237719
C      2.85878070    -1.12641230     0.95309303
H      8.24541572     3.16353963    -0.18599507
H      9.50794880     1.91812932    -0.35660231
H      8.84756608     2.32883669     1.24549425
H      6.76131623     1.98933555    -1.81007717
H      5.09219009     0.23435654    -2.15428825
H      4.73877367    -2.80717611     0.13630678
H      4.64459133    -2.37954095    -1.57550769
H      6.50255302    -1.76695363     1.42752540
H      8.15982949     0.00363171     1.74225741
H      2.72936147    -1.49999334    -2.33915156
H      0.44542643    -0.58627493    -1.97843428
H     -1.24168727    -1.31460007     1.89936656
H     -3.49281098    -0.32834317     2.27836561
H     -4.65866246     1.89078991     2.23758521
H     -4.64216834     2.76611868     0.70240489
H     -6.42807154     0.27039116     2.52976370
H     -8.12326890    -1.23385171     1.61074098
H     -9.57939642    -1.20514861    -1.14556850
H     -8.35257083    -2.20333904    -1.96556397
H     -8.85742791    -2.61305656    -0.32621592
H     -6.85701564    -0.27082680    -2.38694585
H     -5.15096494     1.24148034    -1.50027344
H     -2.76653296     2.69448299    -0.51726903
H     -0.48863951     1.81266584    -0.97974239
H      1.32847513    -0.36234851     2.24087585
H      3.58153266    -1.29183350     1.74819568
