54
conf 9 ff=MMFF E=180.177 Rg=5.74 smiles=Cc1ccc(C[n+]2ccc(-c3cc[n+](Cc4ccc(C)cc4)cc3)cc2)cc1
C      6.95494493    -0.14082975    -3.74616638
C      6.40911851    -0.38810704    -2.36853320
C      6.03491191     0.68197026    -1.55036336
C      5.56709292     0.45447823    -0.25396168
C      5.47308465    -0.85155684     0.24974381
C      4.95064111    -1.10519831     1.63828494
C      5.87094331    -1.92150900    -0.56567428
C      6.33721054    -1.68926186    -1.86147492
N      3.49175894    -0.81505262     1.70903089
C      3.05172066     0.28363953     2.36137035
C      1.68781850     0.57323912     2.42603563
C      0.75011948    -0.27186420     1.82133749
C     -0.69571264     0.02070338     1.86929976
C     -1.61769702    -0.92130836     2.34010069
C     -2.98207300    -0.62799448     2.36848501
N     -3.43793648     0.56895030     1.93725429
C     -4.89771682     0.86215717     1.95909322
C     -5.46598224     0.79936380     0.56703635
C     -5.64415351    -0.43344247    -0.07843474
C     -6.14842976    -0.48529634    -1.37981556
C     -6.47441042     0.69022481    -2.06278388
C     -7.05853095     0.63101989    -3.44551133
C     -6.31808859     1.91901434    -1.41425704
C     -5.81555188     1.97578896    -0.11256241
C     -2.57606029     1.50446115     1.47733671
C     -1.20487010     1.25057597     1.43754025
C      1.24334470    -1.40304918     1.16140611
C      2.61448271    -1.65603602     1.11477845
H      6.55586412     0.78957556    -4.16515669
H      6.67189955    -0.95120994    -4.42687328
H      8.04656915    -0.07137599    -3.70865318
H      6.11984509     1.70315368    -1.92062225
H      5.29914842     1.31768933     0.35100478
H      5.07954318    -2.14997728     1.94522674
H      5.47699074    -0.48183606     2.36949395
H      5.84368190    -2.95009556    -0.20811634
H      6.65905048    -2.53042187    -2.47561963
H      3.79340799     0.92939122     2.82491833
H      1.36946924     1.46556493     2.96425071
H     -1.28635912    -1.89495931     2.69983434
H     -3.71189913    -1.34819340     2.72976786
H     -5.39733110     0.14195955     2.61678771
H     -5.01794711     1.85396469     2.41130545
H     -5.41584805    -1.37347567     0.41889325
H     -6.29898741    -1.45134320    -1.86077729
H     -6.70161991    -0.25394541    -3.98307609
H     -8.15108927     0.59319218    -3.38870322
H     -6.76230416     1.50805397    -4.03092427
H     -6.60078556     2.84088729    -1.92227952
H     -5.72266549     2.95362435     0.35797370
H     -2.99216651     2.44836012     1.13397402
H     -0.54396970     2.02224497     1.04391725
H      0.56930961    -2.09376454     0.65574607
H      3.01821389    -2.52214407     0.59612159
