54
conf 4 ff=MMFF E=180.146 Rg=6.02 smiles=Cc1ccc(C[n+]2ccc(-c3cc[n+](Cc4ccc(C)cc4)cc3)cc2)cc1
C     -8.69067809     1.54863349    -1.07230268
C     -7.59597431     0.74792446    -0.42660646
C     -6.76910058    -0.07348411    -1.19917674
C     -5.77809560    -0.85140807    -0.59610915
C     -5.60232871    -0.82568105     0.79557625
C     -4.52423717    -1.64670504     1.45071621
C     -6.44894645    -0.01848751     1.56998633
C     -7.43810902     0.75792698     0.96249158
N     -3.17650206    -1.12080106     1.09724011
C     -2.76667610     0.06251651     1.60882707
C     -1.50972656     0.57789330     1.29140512
C     -0.64948414    -0.11919749     0.43577946
C      0.68297006     0.41059220     0.08483472
C      1.60132140     0.78671145     1.07141934
C      2.85866983     1.27881766     0.72058223
N      3.21262625     1.40420236    -0.57884399
C      4.56419476     1.92440592    -0.92519442
C      5.61544881     0.88433816    -0.64555254
C      6.48772638     1.03000590     0.44330013
C      7.44757902     0.05348753     0.71751912
C      7.55077406    -1.08676343    -0.08493344
C      8.61500662    -2.11056506     0.19005278
C      6.69751008    -1.22424604    -1.18364103
C      5.73475706    -0.25096164    -1.46082017
C      2.34979777     1.05714353    -1.55921991
C      1.08417439     0.55718168    -1.24814968
C     -1.10765477    -1.34057716    -0.07179048
C     -2.37083105    -1.82498321     0.27206696
H     -9.60714167     0.95301756    -1.12702031
H     -8.89421220     2.46144871    -0.50249747
H     -8.40504628     1.85445055    -2.08429046
H     -6.90560077    -0.11784337    -2.27928665
H     -5.16626818    -1.48458653    -1.23478983
H     -4.59222874    -1.62397891     2.54496907
H     -4.59523440    -2.69455846     1.13879607
H     -6.36976001     0.01152530     2.65591880
H     -8.09866559     1.36613753     1.58032117
H     -3.45328080     0.59395425     2.26330046
H     -1.22180316     1.54125645     1.71083901
H      1.35911761     0.68553591     2.12879582
H      3.58981299     1.56532643     1.47245107
H      4.71528563     2.83561002    -0.33417672
H      4.57657380     2.21501946    -1.98154107
H      6.45207986     1.90748399     1.08710635
H      8.12896116     0.18968377     1.55719117
H      8.74941125    -2.24805665     1.26844586
H      9.56449976    -1.79046389    -0.25041318
H      8.34242202    -3.08459242    -0.23058240
H      6.79006649    -2.09081929    -1.83730860
H      5.10044970    -0.39362319    -2.33289547
H      2.67723750     1.17724061    -2.58881973
H      0.41269838     0.29473822    -2.06508732
H     -0.48244002    -1.93977141    -0.73299993
H     -2.74114621    -2.77205491    -0.11222661
