54
conf 2 ff=MMFF E=180.134 Rg=6.02 smiles=Cc1ccc(C[n+]2ccc(-c3cc[n+](Cc4ccc(C)cc4)cc3)cc2)cc1
C      8.68494749    -1.33027626    -1.36957607
C      7.57226238    -0.40696589    -0.96320297
C      7.50496523     0.08672852     0.34302935
C      6.49702188     0.97932025     0.71297929
C      5.54009475     1.39967459    -0.22280541
C      4.44126562     2.34428541     0.18284294
C      5.62328904     0.91990636    -1.53834978
C      6.63357103     0.02779651    -1.90383229
N      3.12754709     1.64306496     0.19774097
C      2.86384576     0.74042401     1.17015811
C      1.64233281     0.06753891     1.20438133
C      0.66755134     0.31223982     0.23098981
C     -0.62937251    -0.39189497     0.24700520
C     -1.45075102    -0.38145893     1.37986255
C     -2.67706942    -1.04648475     1.37331284
N     -3.09346057    -1.71539591     0.27351709
C     -4.41037861    -2.41051793     0.29139184
C     -5.53544498    -1.41109876     0.26444792
C     -6.34458807    -1.22181041     1.39503183
C     -7.37531398    -0.27975665     1.37899162
C     -7.61328166     0.49321298     0.23857499
C     -8.75123975     1.47331746     0.21164706
C     -6.82377765     0.29036429    -0.89760192
C     -5.79097863    -0.64991105    -0.88588385
C     -2.32339246    -1.75387510    -0.83630891
C     -1.09206306    -1.09729953    -0.87000961
C      0.97575349     1.25384015    -0.75763110
C      2.20794474     1.90958098    -0.75569742
H      9.54321915    -0.74949782    -1.72149359
H      8.35997040    -2.00383792    -2.16923268
H      9.00037449    -1.95456967    -0.52734822
H      8.25068966    -0.21642105     1.07787435
H      6.49027835     1.34674806     1.73827145
H      4.59323788     2.74946801     1.18993537
H      4.38796340     3.19321372    -0.50711040
H      4.92231414     1.24069032    -2.30571521
H      6.69650501    -0.32169600    -2.93388079
H      3.63806392     0.55637518     1.91086855
H      1.47276153    -0.66317835     1.99445122
H     -1.15706743     0.15966613     2.27886589
H     -3.33469466    -1.04019158     2.23918958
H     -4.42724292    -3.03008945     1.19603988
H     -4.47261119    -3.08551256    -0.56918483
H     -6.20314536    -1.80973354     2.30089647
H     -8.00537302    -0.15719308     2.26004596
H     -9.67463444     0.96718941    -0.08664562
H     -8.54964660     2.28706754    -0.49268950
H     -8.89669644     1.92658923     1.19794807
H     -7.02181054     0.86076763    -1.80454680
H     -5.20992347    -0.78217050    -1.79613921
H     -2.69740206    -2.30673018    -1.69451287
H     -0.49512904    -1.15580265    -1.77970500
H      0.25578484     1.50000849    -1.53740444
H      2.46293410     2.64429159    -1.51519852
