54
conf 7 ff=MMFF E=180.174 Rg=5.72 smiles=Cc1ccc(C[n+]2ccc(-c3cc[n+](Cc4ccc(C)cc4)cc3)cc2)cc1
C     -7.11497014    -2.20345944     2.44507875
C     -6.50151189    -1.51432982     1.25954537
C     -6.07954715    -0.18428807     1.35211080
C     -5.54731610     0.47039771     0.23889890
C     -5.43535257    -0.19481281    -0.99167852
C     -4.84209579     0.49756571    -2.18936204
C     -5.88075708    -1.52185840    -1.08698114
C     -6.41155292    -2.17261896     0.02894031
N     -3.38060549     0.71014734    -1.99849335
C     -2.53991003    -0.34824986    -2.05162710
C     -1.16816077    -0.17730005    -1.86440884
C     -0.63616849     1.09280233    -1.61546215
C      0.81002077     1.29053764    -1.39566567
C      1.76037394     0.82716229    -2.31282520
C      3.12400979     1.01182367    -2.07838975
N      3.55145334     1.63711740    -0.95924957
C      5.00990403     1.80890111    -0.71226470
C      5.47625190     0.85553525     0.35504545
C      5.79369752     1.32503847     1.63857097
C      6.19995996     0.43706595     2.63709743
C      6.29049246    -0.93388012     2.37539017
C      6.77180451    -1.87885800     3.43945470
C      5.99711069    -1.40192768     1.09084395
C      5.58905708    -0.51778486     0.08939486
C      2.66182673     2.10235871    -0.05284024
C      1.29083327     1.94066926    -0.25356725
C     -1.53635917     2.16373762    -1.57305595
C     -2.90215487     1.95289621    -1.76918243
H     -6.71609237    -1.79996089     3.38231523
H     -6.88963491    -3.27536367     2.43128038
H     -8.20085571    -2.06762991     2.43533306
H     -6.17701986     0.35140182     2.29613091
H     -5.24293348     1.50866837     0.35416075
H     -5.32758468     1.46551193    -2.35567820
H     -4.95782756    -0.08980882    -3.10806487
H     -5.84038078    -2.06962069    -2.02755892
H     -6.76882746    -3.19825833    -0.06649091
H     -2.97381414    -1.32857302    -2.23253478
H     -0.52573024    -1.05668518    -1.89476127
H      1.45286208     0.32157522    -3.22766240
H      3.87551379     0.65610693    -2.77871297
H      5.55399371     1.64141270    -1.64865738
H      5.16401784     2.85687038    -0.42811729
H      5.74925152     2.38548585     1.88374220
H      6.45909500     0.81994678     3.62441595
H      6.37051830    -2.88602823     3.27989142
H      7.86527793    -1.92830961     3.42837869
H      6.43960381    -1.54984342     4.43027619
H      6.09789504    -2.46303389     0.86387032
H      5.38243602    -0.92486253    -0.89819566
H      3.05511779     2.59179699     0.83469139
H      0.60637337     2.31178583     0.50852691
H     -1.18659444     3.17996089    -1.39421838
H     -3.61499415     2.77303652    -1.73767811
