54
conf 1 ff=MMFF E=180.132 Rg=6.03 smiles=Cc1ccc(C[n+]2ccc(-c3cc[n+](Cc4ccc(C)cc4)cc3)cc2)cc1
C     -8.68923271     0.11899852     2.00441085
C     -7.58485504    -0.20281301     1.03850449
C     -7.49090149     0.47750956    -0.17913037
C     -6.49096325     0.15282489    -1.09829228
C     -5.56882840    -0.86586369    -0.81638165
C     -4.47647392    -1.19777861    -1.79728640
C     -5.68009386    -1.56268798     0.39603972
C     -6.68228754    -1.23487374     1.31192806
N     -3.14973488    -0.78735778    -1.25939453
C     -2.26659663    -1.72444447    -0.84959080
C     -1.02496919    -1.35251249    -0.33136441
C     -0.66909207    -0.00247187    -0.23185406
C      0.63625463     0.41276105     0.31812656
C      1.49248379     1.25949317    -0.39453569
C      2.72323618     1.63933678     0.14147968
N      3.11056338     1.19832765     1.36025617
C      4.42952625     1.61914897     1.90882890
C      5.55252377     0.95435076     1.15910190
C      5.76532805    -0.42830310     1.26274357
C      6.79939759    -1.04095921     0.55136325
C      7.63344214    -0.28762372    -0.28005801
C      8.77352064    -0.94074089    -1.00800170
C      7.43782400     1.09375890    -0.36762702
C      6.40552114     1.71077603     0.34209804
C      2.30791837     0.38339844     2.07974621
C      1.07097647    -0.02180046     1.57568219
C     -1.60626765     0.93780548    -0.67406832
C     -2.83870212     0.52683744    -1.18233986
H     -8.94963593     1.18169673     1.95787953
H     -9.57734442    -0.47522721     1.76831538
H     -8.38256880    -0.09540696     3.03370981
H     -8.20944410     1.26048396    -0.42084070
H     -6.46250920     0.70142689    -2.03854066
H     -4.46174648    -2.27238151    -2.01020716
H     -4.60394979    -0.67546111    -2.75300944
H     -5.00745243    -2.38025856     0.64554592
H     -6.76692524    -1.79685403     2.24149300
H     -2.55882510    -2.76813522    -0.93368862
H     -0.33600905    -2.13575651    -0.01679499
H      1.22213231     1.62328879    -1.38523669
H      3.40677933     2.28808241    -0.40082817
H      4.47419722     1.36569507     2.97376762
H      4.46739463     2.71220453     1.82935370
H      5.14943647    -1.05137387     1.90715831
H      6.96386616    -2.11288240     0.65609118
H      8.99018571    -0.41567235    -1.94424533
H      8.52944100    -1.97670728    -1.26558749
H      9.67039597    -0.93332291    -0.38112767
H      8.10227260     1.69857832    -0.98421555
H      6.29776969     2.79080513     0.25324475
H      2.65984707     0.05658404     3.05499567
H      0.44694437    -0.67237412     2.18767105
H     -1.39911195     2.00561848    -0.61252582
H     -3.58465772     1.24225311    -1.51961138
