46
SMD(acetonitrile)-opt r2scan/def2-svp q=1 m=1
C 5.06024326 -1.56252009 2.24562267
C 4.22754491 -1.12253776 1.07461388
C 3.72804411 -2.04382967 0.14118752
C 2.94169563 -1.62417591 -0.93881875
C 2.64329575 -0.26837965 -1.12340275
C 1.80514543 0.20090022 -2.29001539
C 3.14040182 0.65968452 -0.19170857
C 3.91654985 0.23862042 0.88775642
O 0.83424972 1.16967168 -1.91643547
C -0.20405132 0.65282817 -1.10072509
C -0.75781775 1.81179616 -0.29362967
C -1.91262283 1.42915287 0.64052445
C -2.66280203 2.65712025 1.13589711
C -1.43813662 0.58338951 1.84608144
N -2.90714164 0.56005943 -0.11396406
O -4.06147554 0.67138146 0.15300593
C -2.50995757 -0.47227053 -1.15875688
C -2.16876598 -1.76399850 -0.37929911
C -3.72290290 -0.71032970 -2.04709141
C -1.31553660 0.06082549 -1.95981678
H 4.55603266 -1.33650992 3.20057373
H 5.26047156 -2.64359140 2.21559855
H 6.02798432 -1.03442973 2.26859335
H 3.95010999 -3.10907060 0.26683667
H 2.55244137 -2.36355608 -1.64773131
H 1.33746249 -0.66883066 -2.78940417
H 2.43790467 0.70477912 -3.03995046
H 2.90725840 1.72217455 -0.31796005
H 4.29491227 0.97712207 1.60354220
H 0.20699398 -0.11741939 -0.42185589
H 0.02874516 2.24951490 0.34038352
H -1.10169912 2.59452770 -0.99048155
H -3.40194112 2.40758479 1.90883520
H -3.16146555 3.17879623 0.30528405
H -1.91640414 3.33375646 1.57560293
H -0.88703481 1.28059980 2.49464386
H -0.76470242 -0.23339353 1.56125084
H -2.29544716 0.18385052 2.40690937
H -1.21364395 -1.70447873 0.15560647
H -2.09372680 -2.55442478 -1.14093516
H -2.97520200 -2.02600330 0.32084402
H -4.53973046 -1.20888478 -1.50810567
H -4.08965463 0.23308538 -2.47866065
H -3.39714108 -1.36626167 -2.86676970
H -0.94767989 -0.78520890 -2.56123493
H -1.66904584 0.83990709 -2.65585177
