13
SMD(acetonitrile)-opt r2scan/def2-svp q=1 m=2
C 2.00592014 0.38733868 -0.03218351
C 1.79088757 -1.00568577 -0.02290180
C 0.41898478 -1.18525770 0.00999380
C -0.14861320 0.11517733 0.01972377
C -1.54843968 0.56839295 0.07706839
H -1.68835974 1.07165796 1.05710269
H -1.68182874 1.38090778 -0.67105627
O -2.46318874 -0.47181890 -0.03540467
H -2.48252627 -0.75899295 -0.96394656
O 0.82995796 1.04762350 -0.00928582
H -0.14766549 -2.11538959 0.03300369
H 2.57334040 -1.76399945 -0.03266122
H 2.91038765 0.99726330 -0.04998170
