24
bm_9_10_phenanthrenequinone conf 0 ff=MMFF E=93.239
O     -1.46713063    -3.16544886    -0.14331760
C     -0.82339133    -2.12739233    -0.06390067
C      0.67603349    -2.17868460     0.13227287
O      1.24731218    -3.25830356     0.21184784
C      1.42267852    -0.90955196     0.22404947
C      2.81546414    -0.98022917     0.40635997
C      3.56974348     0.18274083     0.49963042
C      2.93426111     1.41318983     0.41098554
C      1.54655123     1.48007622     0.22932069
C      0.74756723     0.32162325     0.13019580
C     -0.72383196     0.37195743    -0.06231668
C     -1.44175542     1.58230043    -0.16165672
C     -2.83080048     1.61039742    -0.34327921
C     -3.54890594     0.42625076    -0.43174181
C     -2.87588559    -0.78554163    -0.33827951
C     -1.48153104    -0.81020420    -0.15592480
H      3.31363467    -1.94648020     0.47588023
H      4.64628607     0.12734949     0.64057431
H      3.51597344     2.32990792     0.48278844
H      1.11632142     2.47588586     0.16854004
H     -0.94444857     2.54637839    -0.10107534
H     -3.34848211     2.56472099    -0.41531965
H     -4.62672000     0.44454951    -0.57267081
H     -3.43894387    -1.71549182    -0.40760188
