44
anthraquinone/red2 q=-2 m=1 E=-30285.315654eV model=uma-s-1p1
C        7.12210054      -1.81368249      -0.04450485       0.00609106      -0.00368578      -0.00387488
C        6.03452693      -0.77595268      -0.13949708       0.00724920       0.00014260       0.00521992
C        6.16178684       0.45037599       0.50372788      -0.00004078       0.00070264       0.00673289
C        5.15766892       1.40431593       0.41873978      -0.00259189       0.00180593       0.00039389
C        4.00212626       1.16202781      -0.31244789      -0.00080818      -0.00694608      -0.00015874
C        2.89997698       2.19868136      -0.41176193       0.00372149       0.00232255       0.00166906
C        3.87021337      -0.06233758      -0.95630742      -0.00093325      -0.00899873       0.00120195
C        4.87430661      -1.01534519      -0.86918081       0.00489059      -0.00210703       0.01226129
O        1.63387564       1.65010204      -0.61822731       0.00357565       0.01253062       0.01487015
C        1.07053259       1.11620901       0.60142729      -0.00036615       0.00725633       0.00399649
C       -0.22885703       0.43213890       0.35238638       0.00800789       0.00081106      -0.01012301
C       -0.24588569      -0.91332733      -0.11528926      -0.00476354      -0.00318189       0.01198766
C       -1.43434842      -1.55615141      -0.30591407      -0.00671746       0.00009871      -0.00803337
C       -2.67943619      -0.92752158      -0.06367316      -0.00478181       0.00536607      -0.00323838
C       -3.89102983      -1.67065563      -0.25882674      -0.00331963      -0.00797284       0.00365326
O       -3.90129213      -2.89212718      -0.64742309       0.00541936      -0.00019915      -0.00400660
C       -5.09030066      -0.93085072       0.02297392      -0.00436594      -0.00135324       0.00126081
C       -6.34248096      -1.57757537      -0.11673060      -0.00602284      -0.00101456      -0.00146952
C       -7.52331133      -0.93210197       0.12575902      -0.00654186      -0.00103923      -0.00092130
C       -7.51571817       0.42986808       0.52441528      -0.00292729      -0.00787537       0.01009725
C       -6.32365529       1.08142654       0.68208044      -0.00419617      -0.00125601       0.01078642
C       -5.08318242       0.44177661       0.45121066      -0.00372807      -0.00063943      -0.00377784
C       -3.86907839       1.18329256       0.65245726       0.00164644       0.00308752      -0.00040628
O       -3.85109880       2.40065434       1.04109167       0.01170911      -0.00343807      -0.00086387
C       -2.66849159       0.43699599       0.38203397       0.00519371      -0.00067682       0.00192191
C       -1.42060936       1.06503982       0.58122890       0.00827768      -0.00189599       0.00799245
H        7.58177821      -1.81620375       0.94559315       0.00207475      -0.00140144      -0.00323443
H        7.91465127      -1.62503723      -0.77395818       0.00572689      -0.00716436      -0.00544727
H        6.72805256      -2.81202685      -0.23599052       0.00442707      -0.00456705      -0.00388103
H        7.04436066       0.65096925       1.10294642       0.00513038       0.00455333      -0.01003870
H        5.26146710       2.34332437       0.95303334       0.00059856       0.00081059       0.00295637
H        3.10219308       2.85666313      -1.26334899      -0.00426522      -0.00973177      -0.01386148
H        2.91969144       2.82317496       0.49470747      -0.01413433       0.00606259      -0.00093254
H        2.95292852      -0.26832908      -1.49393144      -0.00541587      -0.00943433       0.00329914
H        4.74162049      -1.97489983      -1.35815573       0.00089664       0.00807534       0.00117960
H        1.80042242       0.41618027       1.03316857       0.00198231       0.01519121       0.00052257
H        0.94245932       1.95027678       1.30337450       0.00090382       0.01427124      -0.00768394
H        0.69614590      -1.42506459      -0.30341087      -0.00938021      -0.00196055       0.00933866
H       -1.47720836      -2.58521586      -0.64473461      -0.00336911      -0.00038083      -0.00530398
H       -6.31165259      -2.61668168      -0.42377721      -0.00045537       0.00567290      -0.01389455
H       -8.46735746      -1.45847478       0.01481232      -0.00401324      -0.00147752      -0.00827177
H       -8.45317836       0.94746027       0.70862942       0.00336282      -0.00168474      -0.00015859
H       -6.27714693       2.11844487       0.99415250       0.00342645       0.00224662       0.00018776
H       -1.45756611       2.09016188       0.93883019      -0.00117354      -0.00092477      -0.00194747
