14
SMD(acetonitrile)-opt r2scan/def2-svp q=1 m=2
C -0.48816722 1.19472696 0.32875871
C 0.88195961 1.16610680 -0.29650518
C 1.63051230 -0.09856149 0.11520910
C 0.77091360 -1.28483117 0.03725428
C -0.62739008 -1.15861744 -0.09172481
O -1.24549012 -0.03223483 0.00084747
H -1.28369051 -2.01684374 -0.27972149
H 1.18283336 -2.29752587 0.08287369
H 1.99395621 -0.03862296 1.16680942
H 2.54901722 -0.26689321 -0.47400691
H 1.42032705 2.07084538 0.02150597
H 0.78721299 1.20621087 -1.39440091
H -1.12774488 2.00500781 -0.03930450
H -0.46119484 1.22054253 1.43025668
