41
conf 3 ff=MMFF E=63.609 Rg=3.52 smiles=COc1c(O)cc(C(C)(C)C)cc1C(C)(C)C
O      0.24801068     3.52805346    -0.21037284
C      0.22794063     2.16431575    -0.09491079
C      1.42408051     1.52906958     0.20147319
C      1.49011440     0.13025101     0.25464366
C      2.82426598    -0.56187029     0.59239529
C      2.73730739    -2.10374991     0.65501457
C      3.32499940    -0.08166519     1.97259577
C      3.87586691    -0.20665281    -0.48077149
C      0.30796931    -0.58674223    -0.03947954
C     -0.93040582     0.03231879    -0.35144724
C     -2.16551949    -0.81640399    -0.73885377
C     -1.86932642    -2.33594142    -0.84763858
C     -2.69856840    -0.39115165    -2.12667415
C     -3.28477352    -0.67076050     0.31181810
C     -0.95086632     1.43907272    -0.30900395
O     -2.11126577     2.14157206    -0.52915296
C     -2.60160237     2.70329807     0.69602021
H     -0.56495435     3.75724035    -0.69777244
H      2.30459695     2.14170971     0.37443597
H      2.44138462    -2.53177193    -0.30984735
H      3.70748144    -2.54385898     0.91549307
H      2.01827693    -2.43648158     1.41271037
H      2.58396627    -0.28766212     2.75409481
H      4.25584247    -0.58813794     2.25368665
H      3.53035925     0.99422703     1.98908085
H      3.53866356    -0.51023768    -1.47898277
H      4.82881536    -0.71118607    -0.28276392
H      4.08381165     0.86836964    -0.51710911
H      0.36013529    -1.66994115    -0.03202385
H     -2.76120954    -2.89253421    -1.16108306
H     -1.55763153    -2.75817423     0.11491016
H     -1.08740552    -2.54352211    -1.58764148
H     -1.90837609    -0.44471479    -2.88493009
H     -3.09559540     0.62773187    -2.13594516
H     -3.51684381    -1.04450171    -2.45250303
H     -4.09976343    -1.37982601     0.12287885
H     -3.73895265     0.32233637     0.30365921
H     -2.90689174    -0.86023102     1.32314159
H     -2.12982033     3.67012964     0.89459227
H     -3.67541494     2.87537418     0.57479564
H     -2.45870155     2.03264928     1.55146732
