41
conf 7 ff=MMFF E=67.542 Rg=3.55 smiles=COc1c(O)cc(C(C)(C)C)cc1C(C)(C)C
O     -0.51219581     3.46488160     0.11758168
C     -0.24065165     2.12273260     0.06308467
C      1.08768726     1.71474078    -0.05615920
C      1.41861517     0.35671410    -0.16343707
C      2.89376937    -0.07003730    -0.29030685
C      3.10391442    -1.59854650    -0.38492075
C      3.68369619     0.41950200     0.94341814
C      3.50481821     0.55248994    -1.56457367
C      0.35508079    -0.56801596    -0.16145365
C     -1.00751650    -0.19340985    -0.04268324
C     -2.12621519    -1.26750074    -0.06720863
C     -3.08983956    -1.02053084    -1.25022575
C     -2.91227556    -1.26242508     1.26275432
C     -1.60084933    -2.71728173    -0.24484788
C     -1.28504994     1.18560537     0.10138745
O     -2.60010206     1.56765156     0.19842101
C     -2.87153813     2.50013741     1.24251566
H      0.30045994     3.95839286    -0.07593653
H      1.87485565     2.46281241    -0.06926097
H      2.60881777    -2.02067074    -1.26722764
H      2.72044503    -2.11433388     0.50318117
H      4.16913800    -1.84655616    -0.46606490
H      4.73066997     0.09772117     0.89576080
H      3.68928460     1.51174233     1.02678874
H      3.25397766     0.02079007     1.87006181
H      4.54653584     0.23787722    -1.69784717
H      3.50305293     1.64752352    -1.53340538
H      2.94735509     0.24794145    -2.45831553
H      0.59798770    -1.62005278    -0.25941576
H     -3.82967708    -1.82598153    -1.33082034
H     -2.54268671    -0.97586304    -2.19935384
H     -3.65671997    -0.09068624    -1.15405917
H     -2.23766436    -1.38205232     2.11872560
H     -3.63871272    -2.08330450     1.29479201
H     -3.48127448    -0.34260119     1.41835067
H     -0.94028215    -3.01264202     0.57882857
H     -1.05503959    -2.83746647    -1.18808665
H     -2.42707767    -3.43878367    -0.26215127
H     -3.88349854     2.29961893     1.60849323
H     -2.18747040     2.39862549     2.09281849
H     -2.86382422     3.52124174     0.85079784
