41
conf 1 ff=MMFF E=63.367 Rg=3.51 smiles=COc1c(O)cc(C(C)(C)C)cc1C(C)(C)C
O      0.29419515     3.22062835     1.53334398
C      0.27186989     1.99012278     0.93263838
C      1.49081964     1.36212021     0.71710986
C      1.53006825     0.07181629     0.18206802
C      2.85135632    -0.67272948    -0.08562597
C      2.93578865    -1.06543086    -1.57689554
C      2.91309984    -1.94852449     0.78148211
C      4.11348035     0.16023990     0.23547966
C      0.28986993    -0.55961725    -0.08817448
C     -0.97062745     0.05147787     0.12555362
C     -2.28290919    -0.72933330    -0.12043166
C     -2.05968108    -2.21698087    -0.50161426
C     -3.08676468    -0.10412241    -1.27825390
C     -3.14820937    -0.74742022     1.16080233
C     -0.94185706     1.37901741     0.58949784
O     -2.10060463     2.09511461     0.77127232
C     -2.24183911     3.09391250    -0.24826330
H     -0.61180930     3.36139147     1.86556125
H      2.39159747     1.90135815     0.99129095
H      2.13869479    -1.75674101    -1.87111177
H      2.85995122    -0.18202298    -2.22197155
H      3.88716723    -1.56179773    -1.80155921
H      2.11097245    -2.65423616     0.53941661
H      3.86128179    -2.47934705     0.63634943
H      2.82649154    -1.70556706     1.84719107
H      4.15222654     1.07947355    -0.36062572
H      5.02681247    -0.40577318     0.01599407
H      4.15569686     0.43787983     1.29513522
H      0.33024915    -1.57493708    -0.47345693
H     -3.01473397    -2.74134845    -0.62957448
H     -1.51728486    -2.31557215    -1.44925886
H     -1.50227094    -2.75405547     0.27489343
H     -3.50313608     0.87153176    -1.01862777
H     -2.46378930     0.02217536    -2.17124542
H     -3.93975524    -0.73572391    -1.55422158
H     -4.03873615    -1.37323831     1.02699443
H     -2.58420538    -1.14922234     2.01091103
H     -3.50874959     0.24533565     1.44430211
H     -1.89991882     2.74318268    -1.22910557
H     -1.70933892     4.00829274     0.02945326
H     -3.30546844     3.33867063    -0.32672300
