41
conf 8 ff=MMFF E=67.542 Rg=3.55 smiles=COc1c(O)cc(C(C)(C)C)cc1C(C)(C)C
O     -0.09122326     3.49314131     0.26709869
C      0.01657141     2.13021714     0.17284722
C      1.28413427     1.55381345     0.25155435
C      1.44802075     0.16222714     0.20812633
C      2.85894065    -0.45129556     0.29289264
C      2.88280519    -1.99500267     0.21639127
C      3.72391892     0.07267641    -0.87458295
C      3.51706115    -0.05228403     1.63166903
C      0.28154910    -0.62109479     0.09862851
C     -1.02403721    -0.07353440     0.01662004
C     -2.26364063    -1.00043567    -0.08332771
C     -1.91903026    -2.51383087    -0.06566459
C     -3.21163757    -0.77009260     1.11556838
C     -3.01962220    -0.75416282    -1.40791786
C     -1.13173640     1.33634863     0.02588376
O     -2.38959426     1.88314101    -0.03366248
C     -2.52876587     2.95063982    -0.96876774
H      0.77113482     3.86032972     0.51794766
H      2.15489723     2.19507697     0.35138825
H      2.32515427    -2.44929083     1.04369065
H      2.45612968    -2.35897675    -0.72556899
H      3.90905396    -2.37752833     0.27372625
H      3.26625424    -0.16588762    -1.84201553
H      4.72375465    -0.37681364    -0.85865119
H      3.86189204     1.15865770    -0.83486564
H      3.64687317     1.03159659     1.72350451
H      4.51108061    -0.50336659     1.73349278
H      2.91117022    -0.38432818     2.48310198
H      0.39488256    -1.69914095     0.07977254
H     -1.28414669    -2.79474769    -0.91421445
H     -2.82594580    -3.12750157    -0.13221958
H     -1.40833183    -2.80204415     0.86071070
H     -3.66133448     0.22637754     1.12083023
H     -2.68002896    -0.89639507     2.06617582
H     -4.04390210    -1.48408223     1.10292341
H     -2.34913592    -0.86008450    -2.26891418
H     -3.47119021     0.23936647    -1.46288500
H     -3.83866853    -1.47236194    -1.53410361
H     -3.55079247     2.91550362    -1.35919699
H     -2.40573593     3.91404292    -0.46590035
H     -1.84677834     2.86112699    -1.82208614
