41
conf 4 ff=MMFF E=67.359 Rg=3.54 smiles=COc1c(O)cc(C(C)(C)C)cc1C(C)(C)C
O     -0.23756693     3.53288841     0.03482686
C     -0.22655894     2.16202813     0.00924379
C     -1.42931298     1.48951163    -0.21702964
C     -1.47903180     0.09255368    -0.20557346
C     -2.77894710    -0.69646971    -0.45271607
C     -4.00828023     0.19604983    -0.73928787
C     -3.11489227    -1.54748025     0.79118621
C     -2.60011597    -1.62613917    -1.67295431
C     -0.27300775    -0.59583178     0.05827519
C      0.96534423     0.04945141     0.29283106
C      2.24177383    -0.77619749     0.59432091
C      2.00321023    -2.30960573     0.62272574
C      3.31364471    -0.53396205    -0.49139372
C      2.80850831    -0.41106258     1.98508964
C      0.97020544     1.46105314     0.23243679
O      2.15610510     2.10861085     0.47561537
C      2.47507806     3.13262473    -0.46412915
H     -1.15755138     3.84085448     0.02325065
H     -2.32536035     2.07231236    -0.39908360
H     -3.85867626     0.81415885    -1.63224159
H     -4.23020733     0.86067368     0.10379576
H     -4.90493085    -0.41073704    -0.91417475
H     -3.21856417    -0.91814289     1.68306944
H     -2.34282282    -2.29473835     1.00442396
H     -4.05713214    -2.09119244     0.65522949
H     -2.32779967    -1.05392857    -2.56776989
H     -1.81910371    -2.37732137    -1.51290428
H     -3.52573339    -2.17049815    -1.89401849
H     -0.31983327    -1.68098023     0.08149095
H      1.64374919    -2.68161368    -0.34393913
H      2.93110397    -2.85090393     0.84518766
H      1.27793841    -2.59225422     1.39483768
H      3.69685053     0.48939919    -0.49108626
H      4.18104376    -1.18814091    -0.34230339
H      2.91295769    -0.73610136    -1.49173794
H      3.65757251    -1.05416887     2.24603568
H      2.04677601    -0.53418804     2.76407805
H      3.17292334     0.61813513     2.04207550
H      2.05990197     2.94125493    -1.46026757
H      2.15581664     4.10776472    -0.08554707
H      3.56492539     3.16233369    -0.56186818
