41
conf 5 ff=MMFF E=67.359 Rg=3.54 smiles=COc1c(O)cc(C(C)(C)C)cc1C(C)(C)C
O     -0.31735577     3.37032951     1.03880054
C     -0.11358923     2.07714874     0.63112939
C      1.18780028     1.67001525     0.32992765
C      1.45398262     0.34974765    -0.04442104
C      2.87029142    -0.14843715    -0.38981584
C      3.28126193    -1.26769088     0.59137398
C      2.89073138    -0.70186607    -1.83153323
C      3.95669326     0.94853153    -0.31004182
C      0.35975154    -0.54402199    -0.08704278
C     -0.97288091    -0.16996257     0.21144347
C     -2.11682668    -1.21430688     0.16050081
C     -3.16590667    -0.81845889    -0.90208792
C     -2.79249308    -1.34722118     1.54417710
C     -1.64374099    -2.64288439    -0.21951709
C     -1.19498661     1.18445163     0.54688841
O     -2.47658422     1.56536442     0.85872016
C     -2.91069703     2.76315945     0.21816475
H      0.54307020     3.79162132     1.19219340
H      1.98907821     2.39764182     0.39486358
H      2.62663202    -2.14317115     0.52098677
H      3.24743054    -0.91445016     1.62884359
H      4.30163562    -1.61451335     0.39018671
H      2.57100343     0.06117770    -2.55113162
H      2.23019655    -1.56698372    -1.95460277
H      3.89844463    -1.02697685    -2.11575815
H      4.94355955     0.54690942    -0.56994974
H      3.75089913     1.77136527    -1.00459538
H      4.03616881     1.36553434     0.70068080
H      0.57400329    -1.57260360    -0.36343740
H     -2.69620189    -0.66650314    -1.88105967
H     -3.70349733     0.09868884    -0.64919885
H     -3.92639314    -1.60027517    -1.01602580
H     -2.05491257    -1.58428287     2.32006501
H     -3.31483617    -0.43831110     1.85455460
H     -3.54143020    -2.14826967     1.54185280
H     -1.18970739    -2.66725558    -1.21716469
H     -0.91698595    -3.03405294     0.50220361
H     -2.48463919    -3.34720124    -0.23697267
H     -2.76367656     3.62174457     0.87950717
H     -3.98669039     2.67014550     0.03985620
H     -2.42860240     2.92612360    -0.75256402
