41
conf 6 ff=MMFF E=67.359 Rg=3.54 smiles=COc1c(O)cc(C(C)(C)C)cc1C(C)(C)C
O     -0.08265000     3.42727557    -0.88649396
C      0.03096855     2.10582801    -0.53879312
C      1.30310156     1.59130893    -0.27987067
C      1.47642604     0.23976404     0.03218993
C      2.85708658    -0.37587141     0.32915058
C      2.85884351    -0.99271193     1.74503900
C      3.16862773    -1.47763863    -0.70690912
C      4.02046977     0.64084750     0.27633414
C      0.31972306    -0.57227997     0.05678388
C     -0.98597648    -0.08853921    -0.20025846
C     -2.20328441    -1.04732765    -0.17293059
C     -1.83160037    -2.52221051     0.13629192
C     -3.20355111    -0.62305221     0.92516583
C     -2.90829100    -1.06881463    -1.54815563
C     -1.11221015     1.29206380    -0.47281835
O     -2.36671378     1.77948549    -0.74386771
C     -2.70081454     2.97630144    -0.04423474
H      0.80415861     3.79064134    -1.03776617
H      2.15502467     2.26031586    -0.32841530
H      2.60793744    -0.24088854     2.50272562
H      3.84393687    -1.40330712     1.99596719
H      2.13788283    -1.81152908     1.84316060
H      3.14497503    -1.07716627    -1.72736658
H      4.16347340    -1.90701286    -0.54005778
H      2.45205126    -2.30495714    -0.66205393
H      4.11492127     1.09531129    -0.71679535
H      3.88708130     1.44494139     1.00943526
H      4.97875767     0.15673762     0.50012007
H      0.46137806    -1.62505925     0.28452973
H     -1.14713871    -2.93330202    -0.61509110
H     -2.72204023    -3.16297881     0.13915843
H     -1.36520369    -2.62403653     1.12327830
H     -3.67546220     0.34141679     0.72215734
H     -2.70878578    -0.54960532     1.90082795
H     -4.01809398    -1.35119199     1.01948380
H     -3.71442052    -1.81206279    -1.56633070
H     -2.20242008    -1.32471231    -2.34720704
H     -3.36656201    -0.11115745    -1.80924969
H     -2.19291600     3.06022243     0.92338164
H     -2.50085518     3.85027426    -0.67060582
H     -3.77783500     2.95467788     0.15009058
