41
conf 0 ff=MMFF E=63.367 Rg=3.51 smiles=COc1c(O)cc(C(C)(C)C)cc1C(C)(C)C
O      0.14380031     2.98994558     1.96206743
C      0.17830538     1.83551141     1.22614346
C      1.32276334     1.05512643     1.31497892
C      1.38721412    -0.17325793     0.65194569
C      2.63157748    -1.07894368     0.70767850
C      3.80772744    -0.47528005     1.50903031
C      3.14810086    -1.34411479    -0.72344542
C      2.26621930    -2.42248314     1.37457911
C      0.23792177    -0.58628934    -0.06802933
C     -0.94690200     0.18378835    -0.17358886
C     -2.18856403    -0.36780214    -0.91269504
C     -3.41734767    -0.37209788     0.02576297
C     -2.49993376     0.47158148    -2.16812577
C     -2.02307959    -1.83173522    -1.40028154
C     -0.92029372     1.44511520     0.44832634
O     -1.98737142     2.30633391     0.35788779
C     -1.67866633     3.40262247    -0.51380404
H     -0.79903303     3.23345355     2.01492708
H      2.14144063     1.42750758     1.92198512
H      4.13995334     0.47779689     1.08112324
H      4.67322407    -1.14880873     1.50830815
H      3.53659096    -0.30343248     2.55721440
H      4.05887364    -1.95422655    -0.70811849
H      2.41623299    -1.87989101    -1.33756484
H      3.38439134    -0.40486235    -1.23750232
H      1.86816937    -2.26618623     2.38423074
H      1.51115870    -2.97636024     0.80612455
H      3.14442879    -3.07322203     1.45928305
H      0.28602830    -1.55750997    -0.55317106
H     -4.28142804    -0.84389271    -0.45731231
H     -3.20692178    -0.92811960     0.94706064
H     -3.73601630     0.63368537     0.31346471
H     -3.28350021     0.00129565    -2.77436544
H     -2.86529168     1.47097301    -1.92235705
H     -1.61202762     0.58358877    -2.80102122
H     -1.81030694    -2.51337607    -0.56828861
H     -2.93828247    -2.19454169    -1.88426208
H     -1.21855615    -1.92429981    -2.13927920
H     -1.08019493     3.09457660    -1.37920230
H     -2.62537421     3.80893457    -0.88262365
H     -1.16503027     4.19889683     0.03291640
