41
conf 2 ff=MMFF E=63.367 Rg=3.51 smiles=COc1c(O)cc(C(C)(C)C)cc1C(C)(C)C
O     -0.48932358     3.52696389    -0.36222990
C     -0.21327909     2.19420303    -0.21044450
C      1.12104748     1.81213550    -0.22706708
C      1.46410492     0.45929146    -0.15766723
C      2.92613628    -0.02467405    -0.16507901
C      3.17655622    -0.90076407    -1.41131512
C      3.96303835     1.12153668    -0.19573309
C      3.20706526    -0.85499777     1.10647992
C      0.40360178    -0.48018704    -0.10724269
C     -0.96769211    -0.12331775    -0.09432349
C     -2.07012480    -1.20794121    -0.11649347
C     -3.01292533    -0.99436829    -1.32320084
C     -2.88942723    -1.18696351     1.18961844
C     -1.51968155    -2.65180919    -0.25960811
C     -1.24627408     1.25535347    -0.08470954
O     -2.53705987     1.72051427    -0.00707077
C     -2.79663427     2.27476602     1.29001028
H     -1.42854483     3.56741873    -0.62156504
H      1.86872711     2.59409773    -0.30991830
H      2.55638361    -1.80376547    -1.41543172
H      2.95786077    -0.34774472    -2.33251705
H      4.22128345    -1.22954034    -1.45967039
H      4.98683641     0.72852037    -0.18570792
H      3.86344091     1.73252942    -1.10044555
H      3.86156163     1.78031272     0.67463842
H      4.25425748    -1.17735567     1.14457147
H      2.59307489    -1.76073625     1.15630309
H      3.00492170    -0.27018565     2.01169458
H      0.67997048    -1.53096201    -0.08635474
H     -3.58902586    -0.06743561    -1.25370597
H     -2.44858003    -0.96288723    -2.26275273
H     -3.74420427    -1.80779222    -1.40169577
H     -3.51467076    -0.29576105     1.27623514
H     -3.57155406    -2.04402151     1.24277949
H     -2.23601252    -1.22692915     2.06878371
H     -2.33499581    -3.38412118    -0.30904817
H     -0.89485630    -2.93402088     0.59589757
H     -0.92843532    -2.77018250    -1.17532138
H     -2.48486880     3.32251127     1.33252721
H     -2.31358816     1.70613737     2.09331444
H     -3.87811014     2.24217239     1.45346583
