39
conf 2 ff=MMFF E=94.636 Rg=3.78 smiles=Cc1ccc(CN2c3ccccc3Sc3ccccc32)cc1
C     -4.17203255    -0.17483411    -2.66426963
C     -3.15105285    -0.47296045    -1.60719420
C     -2.15642941    -1.43012948    -1.83196190
C     -1.18127679    -1.68067684    -0.86335169
C     -1.17548034    -0.97209178     0.34652678
C     -0.10793557    -1.23637710     1.39585484
C     -2.16451498    -0.00141189     0.55989908
C     -3.13933241     0.24857998    -0.40919086
N      1.10418239    -0.38963542     1.23419639
C      1.93876532    -0.78156008     0.15066785
C      2.44787063    -2.09487876     0.09386362
C      3.27591409    -2.51396289    -0.95020628
C      3.62406865    -1.62281933    -1.95688976
C      3.15454241    -0.31150542    -1.90921312
C      2.32703655     0.11867345    -0.85891555
S      1.77369463     1.81194234    -0.90082465
C      1.20111836     2.04157628     0.77086097
C      1.00318607     3.36270395     1.20490026
C      0.54854816     3.62973825     2.49496594
C      0.29467571     2.57758841     3.36518785
C      0.48295431     1.26094677     2.93812839
C      0.91670963     0.96397904     1.63011971
H     -3.80126392     0.60854645    -3.33239135
H     -5.11334657     0.15889758    -2.21506837
H     -4.39425917    -1.06912843    -3.25594990
H     -2.12850916    -1.98357088    -2.76776469
H     -0.41587149    -2.42562448    -1.06812082
H     -0.55470991    -1.10955346     2.39015473
H      0.14475745    -2.30415108     1.37766145
H     -2.17556738     0.57974625     1.47905746
H     -3.88574062     1.01763041    -0.22414939
H      2.22609880    -2.80275435     0.88802743
H      3.65543732    -3.53223991    -0.96766122
H      4.26836628    -1.94079328    -2.77215088
H      3.44090615     0.37999768    -2.69864496
H      1.20701812     4.19515261     0.53492653
H      0.40527949     4.65681777     2.81971390
H     -0.03898685     2.77732979     4.38007928
H      0.31517943     0.46081240     3.65409515
