39
conf 1 ff=MMFF E=94.636 Rg=3.78 smiles=Cc1ccc(CN2c3ccccc3Sc3ccccc32)cc1
C      4.52665733    -0.02192195    -2.03560427
C      3.42375876    -0.13429852    -1.02581390
C      2.75483860    -1.34815782    -0.83856564
C      1.70110062    -1.44397929     0.07376953
C      1.28858208    -0.32491016     0.81095757
C      0.13471422    -0.42603556     1.79531327
C      1.95110624     0.89385906     0.60699858
C      3.00476155     0.98890059    -0.30551363
N     -1.19181388    -0.14476457     1.18413390
C     -1.67947718    -1.19672120     0.35966923
C     -1.83294888    -2.49350363     0.89072470
C     -2.31544198    -3.54967159     0.11414251
C     -2.66770949    -3.32891208    -1.21097231
C     -2.54959554    -2.04981638    -1.75155997
C     -2.07151791    -0.98170883    -0.97468771
S     -1.94923368     0.60949594    -1.76728859
C     -1.78524046     1.69532890    -0.36401362
C     -2.00259274     3.06536393    -0.58470636
C     -1.88574993     3.98361406     0.45713458
C     -1.55746720     3.53870037     1.73111973
C     -1.33337184     2.17841717     1.95646939
C     -1.41961380     1.23339138     0.91401687
H      5.25293582     0.74151861    -1.73743563
H      4.11339575     0.24517671    -3.01306068
H      5.07014459    -0.96819662    -2.12734829
H      3.04442576    -2.22817792    -1.40822313
H      1.19454786    -2.39883016     0.19370146
H      0.15773910    -1.41918750     2.26162176
H      0.33560356     0.24392027     2.64096567
H      1.64198319     1.78518132     1.14802232
H      3.49123859     1.95000965    -0.45523225
H     -1.60410877    -2.68792457     1.93513920
H     -2.42513205    -4.53910511     0.55028786
H     -3.04455016    -4.14504067    -1.82154736
H     -2.83674261    -1.88699746    -2.78810231
H     -2.26874406     3.42440899    -1.57648805
H     -2.06235408     5.04004755     0.27372228
H     -1.48584580     4.24497560     2.55408888
H     -1.11828159     1.85555148     2.97158540
