39
conf 0 ff=MMFF E=93.029 Rg=4.00 smiles=Cc1ccc(CN2c3ccccc3Sc3ccccc32)cc1
C      5.37660332     0.87184527    -0.35770244
C      3.93490943     0.83898224     0.05398696
C      2.99160423     0.15912707    -0.72228374
C      1.65280606     0.10017732    -0.32481264
C      1.22792862     0.71080611     0.86371731
C     -0.21337048     0.68328260     1.35185528
C      2.18469563     1.37911935     1.64523541
C      3.52325024     1.43804864     1.24798727
N     -1.16184142    -0.04160758     0.47503529
C     -1.90695172     0.74459658    -0.44790083
C     -1.40378884     1.96187832    -0.95960021
C     -2.11557126     2.73699811    -1.88162832
C     -3.35635976     2.31320289    -2.32945498
C     -3.87530503     1.11168995    -1.85835565
C     -3.16128546     0.32582085    -0.93369235
S     -3.96181608    -1.17202136    -0.40427730
C     -2.65000856    -2.01696093     0.45005281
C     -2.89897452    -3.36193764     0.78392048
C     -1.95289011    -4.11751784     1.46868444
C     -0.74693142    -3.53405410     1.82216468
C     -0.49620053    -2.19665343     1.49648349
C     -1.44002288    -1.39497566     0.81580240
H      5.86315018     1.78693613    -0.00399138
H      5.47186439     0.85483709    -1.44851455
H      5.90404511     0.00749063     0.05729225
H      3.28999482    -0.33135251    -1.64639331
H      0.94575978    -0.43322086    -0.95775792
H     -0.22848349     0.25957728     2.36592711
H     -0.54787828     1.71906871     1.50472155
H      1.89226667     1.85964874     2.57698403
H      4.24279642     1.95657980     1.87781481
H     -0.42213458     2.32900731    -0.67322366
H     -1.68885864     3.66567561    -2.25193988
H     -3.91601926     2.90779242    -3.04598124
H     -4.84872541     0.78478155    -2.21858106
H     -3.84167905    -3.82961524     0.50684793
H     -2.15625889    -5.15551923     1.71639803
H      0.00929988    -4.11530484     2.34361640
H      0.48038091    -1.80622935     1.76904775
