39
conf 3 ff=MMFF E=94.636 Rg=3.78 smiles=Cc1ccc(CN2c3ccccc3Sc3ccccc32)cc1
C      4.19110011     0.30503768    -2.63411905
C      3.25038624     0.22388250    -1.46914616
C      2.85026957    -1.01821646    -0.96608869
C      1.94336973    -1.09545440     0.09385012
C      1.41072912     0.06834151     0.66639238
C      0.41526242    -0.01560704     1.81207687
C      1.80179492     1.31066588     0.14714066
C      2.70874448     1.38710513    -0.91281325
N     -1.00065020    -0.08904088     1.36248937
C     -1.36844424    -1.35433991     0.82591188
C     -1.21142553    -2.52045969     1.60226946
C     -1.56799390    -3.77906860     1.11223610
C     -2.10243784    -3.89814532    -0.16406835
C     -2.29164540    -2.75687451    -0.94122103
C     -1.94162651    -1.48741637    -0.45244097
S     -2.21454228    -0.09655506    -1.53231373
C     -2.10385463     1.26782934    -0.39156335
C     -2.60163219     2.50774052    -0.82490069
C     -2.54558857     3.62800751     0.00222045
C     -1.99755952     3.51638211     1.27342482
C     -1.49454160     2.28794740     1.70850661
C     -1.51570666     1.14676745     0.88117394
H      4.89102117    -0.53718097    -2.63039014
H      4.78753183     1.22246390    -2.59136077
H      3.62734099     0.29267151    -3.57196728
H      3.23628748    -1.93705474    -1.40143124
H      1.64470539    -2.07494608     0.46007640
H      0.57851371     0.83843086     2.48162376
H      0.67931601    -0.87325389     2.44377479
H      1.39130204     2.23127962     0.55542431
H      2.98328326     2.36316828    -1.30617375
H     -0.83389732    -2.45433914     2.61915909
H     -1.43748283    -4.66118952     1.73357641
H     -2.38305147    -4.87353435    -0.55233181
H     -2.71913148    -2.86144128    -1.93606205
H     -3.04100932     2.60513015    -1.81527761
H     -2.93968887     4.57988413    -0.34346119
H     -1.96982001     4.37951032     1.93332665
H     -1.10922813     2.22187242     2.72247704
