39
conf 4 ff=MMFF E=94.675 Rg=3.78 smiles=Cc1ccc(CN2c3ccccc3Sc3ccccc32)cc1
C      4.32883168     1.18552362     2.19614579
C      3.25921854     0.88334771     1.18954184
C      3.07703940    -0.42063424     0.71791701
C      2.09640728    -0.69868606    -0.23755300
C      1.28576376     0.32424204    -0.74980278
C      0.21118290     0.02027880    -1.78102074
C      1.48041419     1.63182035    -0.28260019
C      2.46123396     1.90915356     0.67288570
N     -1.10722315    -0.31663627    -1.18057698
C     -1.16011700    -1.61581993    -0.60297678
C     -0.86022967    -2.74760956    -1.38806627
C     -0.90838020    -4.03918578    -0.85809100
C     -1.27044403    -4.22886248     0.46919155
C     -1.59673402    -3.12769250     1.25864642
C     -1.55698346    -1.82671479     0.73059674
S     -1.98192388    -0.48982335     1.82931582
C     -2.26237137     0.84191234     0.67915444
C     -2.94459111     1.97150799     1.16035047
C     -3.19732019     3.06087114     0.32867159
C     -2.77618848     3.02712874    -0.99430229
C     -2.09129542     1.90977882    -1.47784304
C     -1.80045098     0.80669557    -0.64967451
H      4.04360327     2.03422947     2.82668860
H      5.26680819     1.42364756     1.68525685
H      4.49413804     0.33005672     2.85953564
H      3.69178017    -1.23305064     1.09851481
H      1.96460533    -1.72485447    -0.57270569
H      0.13201672     0.87322175    -2.46698792
H      0.57023783    -0.78454697    -2.43498184
H      0.86215677     2.44608937    -0.65333207
H      2.59079209     2.93232747     1.01801119
H     -0.61317690    -2.63406338    -2.44022338
H     -0.67371805    -4.89387836    -1.48710273
H     -1.31100224    -5.23041273     0.88886360
H     -1.88722743    -3.28918613     2.29446220
H     -3.28679790     2.00562108     2.19239414
H     -3.73130696     3.92604058     0.71235725
H     -2.98835132     3.86289336    -1.65589859
H     -1.81039636     1.89526959    -2.52753063
