14
SMD(acetonitrile)-opt r2scan/def2-svp q=0 m=1
C 1.14809731 1.18389895 0.03016642
O 1.97969527 1.88365738 0.56398464
O 1.40482479 0.04768487 -0.62112731
C 2.77382188 -0.42735315 -0.60301859
C 3.06010002 -1.19267624 0.66753441
H 2.98640790 -0.53951007 1.55061521
H 4.08252147 -1.60015481 0.62804014
H 2.35817318 -2.03273609 0.78678161
H 2.85113323 -1.07112183 -1.49013987
H 3.44840384 0.43365444 -0.72344135
C -0.32727244 1.50244949 0.00911354
H -0.50460689 2.50683818 0.40763496
H -0.75264548 1.39065561 -0.99668361
Br -1.29244109 0.24559996 1.16855836
