18
bm_2_6_dimethyl_1_4_benzoquinone conf 0 ff=MMFF E=0.887
C     -2.53077153    -0.90536829     0.08901588
C     -1.27212293    -0.09572471     0.07875465
C     -1.25891204     1.23773343     0.20403603
C     -0.00490660     2.00998752     0.19055695
O     -0.00787979     3.22801891     0.30603297
C      1.25281441     1.26010151     0.03277052
C      1.27253489    -0.07306333    -0.09475629
C      2.53508160    -0.86025416    -0.25640613
C      0.00207578    -0.85032333    -0.08061366
O      0.00505508    -2.07076193    -0.19631583
H     -3.41896460    -0.27595244     0.20989302
H     -2.64084005    -1.45621412    -0.85088858
H     -2.51889991    -1.62339010     0.91561744
H     -2.16594637     1.81966555     0.32171893
H      2.15696808     1.85816326     0.02695526
H      3.42016286    -0.21504607    -0.25644201
H      2.64824571    -1.57737421     0.56328816
H      2.52630541    -1.41019749    -1.20321733
