44
anthraquinone/neu q=0 m=1 E=-30286.137513eV model=uma-s-1p2p1
C        7.10971958      -1.81163332      -0.04730151       0.00565693      -0.00899526      -0.00170255
C        5.99169234      -0.80963616      -0.14371134       0.00521090      -0.00507054      -0.00208610
C        5.97720612       0.32449001       0.65847443      -0.00428660      -0.00833235       0.00141059
C        4.96773445       1.27021293       0.53797155       0.00204370      -0.00149592       0.00085393
C        3.95270503       1.10920132      -0.39382426      -0.00158568       0.01640510       0.00145236
C        2.88306704       2.15932157      -0.57466910      -0.00886663       0.00654975       0.00055915
C        3.95284235      -0.03318077      -1.18929453      -0.00499223       0.01007139       0.00848302
C        4.95682172      -0.97881445      -1.06222019      -0.00887094       0.00499472       0.00729915
O        1.57272287       1.62097115      -0.62165715       0.00573642      -0.00978274      -0.00748833
C        1.12418895       1.18740416       0.65159008       0.00993047       0.00863103      -0.00633936
C       -0.18059447       0.46747610       0.46815383       0.00411466       0.01297042       0.00027413
C       -0.18141363      -0.85956546       0.04068161       0.00632939       0.00988496      -0.01307608
C       -1.36889855      -1.53380714      -0.16547829       0.00127875      -0.00479625      -0.00368037
C       -2.58091512      -0.88784127       0.05485973      -0.00359387      -0.00073919       0.00157747
C       -3.84837604      -1.63918116      -0.16725983      -0.01083631       0.00771850       0.00021888
O       -3.84035047      -2.79920215      -0.51988698       0.00776454       0.00812486      -0.00083311
C       -5.12961423      -0.90985182       0.05925644      -0.00990073       0.00106078       0.00007752
C       -6.32888480      -1.57970621      -0.15600320      -0.00350339      -0.00042029       0.00091743
C       -7.53135843      -0.92485898       0.04383527      -0.00098236       0.00038384      -0.00383643
C       -7.54328170       0.40205187       0.46137639       0.00235336       0.00300122      -0.00094985
C       -6.35283392       1.07328646       0.67972077       0.00480056      -0.00103779      -0.00247319
C       -5.14103874       0.42095318       0.47876431      -0.00333366      -0.00392050      -0.00064317
C       -3.87090689       1.16577614       0.72094508      -0.00092956      -0.01123850       0.00375782
O       -3.88088168       2.31686686       1.10097837       0.00655504      -0.00222336      -0.00412038
C       -2.59033795       0.44036735       0.47881289      -0.00166388      -0.00497880       0.00443151
C       -1.38854435       1.11021395       0.68179299       0.00115678       0.00530737      -0.00628914
H        7.52880175      -1.84606502       0.95803449      -0.01395091       0.00509191       0.00739230
H        7.92034479      -1.55002861      -0.73082894       0.00060067      -0.00422769      -0.00711325
H        6.76870972      -2.81257508      -0.31031606      -0.00351474      -0.00462914       0.00222526
H        6.76228624       0.46846536       1.39165941       0.00202250       0.00349378       0.00289177
H        4.97212690       2.14427882       1.17957143       0.00071325       0.00872282      -0.00368733
H        3.02022021       2.67297450      -1.52741094      -0.01796831      -0.00471356       0.00213046
H        2.95848384       2.90849281       0.22342137       0.00818915       0.00939292      -0.00317378
H        3.15361406      -0.17453712      -1.90760819       0.01417678      -0.01105928      -0.00778090
H        4.94520073      -1.86316010      -1.68956422      -0.00974596       0.01020120       0.00066005
H        1.86429564       0.51701370       1.10469626      -0.00917514      -0.00902021       0.00055092
H        0.99796263       2.05207013       1.31485965      -0.00422752      -0.00183673       0.00539554
H        0.76528892      -1.35699578      -0.13360263       0.00801366      -0.01411997       0.00578655
H       -1.38437220      -2.56294276      -0.49588727       0.00190132      -0.01710502       0.00001385
H       -6.29335073      -2.61111756      -0.47962212      -0.00164887       0.00591505      -0.00039292
H       -8.46476384      -1.44544912      -0.12639243       0.00422124      -0.00251513       0.00244971
H       -8.48626924       0.91050561       0.61492389       0.00727031       0.00284972       0.00437527
H       -6.33796473       2.10459345       1.00540111       0.00620723      -0.00630277      -0.00181319
H       -1.42108412       2.14316244       1.00444570       0.00732955      -0.00221028       0.01229477
