14
SMD(acetonitrile)-opt r2scan/def2-svp q=0 m=1
C -1.36348625 -1.22495334 -0.00010943
C 0.02830283 -1.22540313 -0.00010980
C 0.70330155 -0.00026728 -0.00001000
C 0.02771296 1.22459644 0.00009205
C -1.36407066 1.22575114 0.00009289
C -2.03196176 0.00026044 -0.00000799
F -3.36745258 0.00002876 -0.00000725
H -1.93679060 2.15644032 0.00016931
H 0.59160442 2.15866957 0.00016846
N 2.16722453 -0.00000200 -0.00001184
O 2.74149357 -1.08194258 -0.00006947
O 2.74134008 1.08201980 0.00007939
H 0.59193762 -2.15965093 -0.00018659
H -1.93646432 -2.15546342 -0.00018531
