29
SMD(acetonitrile)-opt r2scan/def2-svp q=1 m=1
C 2.56096769 0.03421871 -0.86633479
C 1.32348050 0.23168243 -0.00704480
C 1.59838015 -0.25255689 1.43284333
C 0.83220399 1.69675226 -0.04479996
C -0.56633616 1.88977706 0.51338736
C -1.55957826 1.04826557 -0.26827597
C -1.24784028 -0.46569958 -0.25290805
C -2.04406047 -1.21187670 -1.31020771
C -1.49680958 -1.09608873 1.13461591
N 0.22364532 -0.64279965 -0.57875646
O 0.53050282 -1.50478450 -1.34281408
H 2.34971193 0.23591141 -1.92713095
H 3.31558506 0.75293250 -0.51656628
H 2.97605668 -0.97855381 -0.76721397
H 1.72853479 -1.34408447 1.46583809
H 0.82341139 0.05170878 2.14482669
H 2.54662652 0.22037446 1.72850174
H 0.86659647 2.03613648 -1.09393885
H 1.58298893 2.27742413 0.51434954
H -0.84603781 2.95171975 0.42226989
H -0.60219351 1.65116763 1.58877431
H -1.58014754 1.37647656 -1.32131053
H -2.58301662 1.14549875 0.12750672
H -1.90794612 -2.30009575 -1.23908631
H -1.77579307 -0.87965443 -2.32423765
H -3.10531585 -0.98406093 -1.13635153
H -1.12835114 -0.47899523 1.96135193
H -1.06059088 -2.10363213 1.19724124
H -2.58946931 -1.18390872 1.22745645
