47
conf 0 ff=MMFF E=88.170 Rg=5.35 smiles=COC1=CC(=O)C(c2cc(OCc3ccc(C)cc3)ccc2OC)=CC1=O
C     -8.13788454    -0.19208100     1.28047292
C     -6.64632618    -0.14760305     1.13039018
C     -5.95726322     1.06415144     1.25230939
C     -4.57163045     1.11300904     1.07945994
C     -3.85115030    -0.04967685     0.77853876
C     -2.35605877    -0.00153660     0.58260075
C     -4.54634693    -1.25724423     0.63055264
C     -5.93171103    -1.30514109     0.80329952
C      7.35493847    -0.31851843     2.21840761
O      6.12840070     0.20757339     2.71541099
C      5.04973219     0.17606651     1.84184448
C      4.11209200     1.11880198     1.97650754
C      2.90940268     1.19223623     1.12907257
O      2.06493041     2.05340658     1.34801308
C      2.77417515     0.19153453     0.03675298
C      1.62527126     0.23347849    -0.89500902
C      0.32767652     0.08017363    -0.36930783
C     -0.78658862     0.10732741    -1.20630868
O     -2.09014637    -0.02634390    -0.81856995
C     -0.60211403     0.27393709    -2.57794808
C      0.67770208     0.43595321    -3.11579512
C      1.79890792     0.42544229    -2.28235840
O      3.08965071     0.59244374    -2.71808605
C      3.28450160     0.88228553    -4.09696146
C      3.69385613    -0.77583384    -0.08671505
C      4.87058343    -0.88347548     0.79862636
O      5.64098727    -1.82521192     0.65047984
H     -8.46315986    -1.16557340     1.66223310
H     -8.61691208    -0.01319532     0.31297150
H     -8.48163731     0.56639023     1.99165712
H     -6.49602681     1.98129506     1.47956815
H     -4.05937202     2.06796505     1.17461048
H     -1.90650271    -0.87257028     1.07584646
H     -1.95230767     0.91219892     1.03688880
H     -4.01043187    -2.16720100     0.36951603
H     -6.44994068    -2.25284207     0.67624364
H      8.16160213     0.07183245     2.84657704
H      7.36975141    -1.40835035     2.30750443
H      7.54880670     0.00234874     1.18938585
H      4.19717073     1.88692009     2.73676336
H      0.21587984    -0.05437118     0.70238938
H     -1.46805481     0.28917405    -3.23669225
H      0.75782977     0.57090670    -4.18918428
H      4.35695639     1.02770363    -4.25856906
H      2.77642102     1.80915940    -4.38291897
H      2.96491688     0.04349437    -4.72380708
H      3.62942283    -1.53803792    -0.85666358
