47
conf 8 ff=MMFF E=88.351 Rg=5.36 smiles=COC1=CC(=O)C(c2cc(OCc3ccc(C)cc3)ccc2OC)=CC1=O
C      7.34047306    -0.76753128     3.13134659
C      6.27944202    -0.70825801     2.07298534
C      5.70911262    -1.88451063     1.57393527
C      4.69634345    -1.82961320     0.61299448
C      4.23515637    -0.59627947     0.13543863
C      3.13295829    -0.53160023    -0.89208642
C      4.78733548     0.58082052     0.65748175
C      5.79979520     0.52493551     1.61832546
C     -7.34252346     0.01565070     2.29750814
O     -6.50117874     1.13625815     2.04417869
C     -5.31938541     0.87572343     1.36321496
C     -4.80882047     1.85359854     0.60847590
C     -3.55553734     1.71909549    -0.15428108
O     -3.13103214     2.67291955    -0.79702229
C     -2.85384402     0.40936643    -0.09023628
C     -1.63626372     0.16830043    -0.88307990
C     -0.39938469     0.01489087    -0.23842286
C      0.77041498    -0.21908627    -0.96881980
O      1.89725958    -0.34756894    -0.20567912
C      0.70379496    -0.31067072    -2.35878980
C     -0.52243618    -0.16043600    -3.01429909
C     -1.68472659     0.09501175    -2.28259513
O     -2.90492496     0.19568888    -2.90303252
C     -2.92460894     1.23666963    -3.88095102
C     -3.34773366    -0.57591601     0.67113657
C     -4.58034528    -0.42330088     1.47027066
O     -4.94329497    -1.35318644     2.18161816
H      6.87950852    -0.76846406     4.12383660
H      7.95011065    -1.67076573     3.02298743
H      8.01626219     0.09082025     3.05535594
H      6.04675701    -2.85355480     1.93454955
H      4.26366713    -2.75757939     0.24600898
H      3.11578772    -1.46379496    -1.47056581
H      3.32805915     0.30537892    -1.57472343
H      4.42342797     1.55047534     0.32447580
H      6.20802847     1.45234404     2.01366943
H     -8.34454645     0.39674236     2.51753624
H     -6.99969617    -0.53055764     3.18070586
H     -7.42017382    -0.64100505     1.42449580
H     -5.30647975     2.81297565     0.52518214
H     -0.33251640     0.08410067     0.84582055
H      1.58197316    -0.50697393    -2.96494341
H     -0.56198319    -0.26338576    -4.09481616
H     -2.49375342     0.88461219    -4.82343512
H     -3.97042772     1.49921036    -4.06677688
H     -2.40638394     2.13820831    -3.53464336
H     -2.87366656    -1.54975856     0.73818502
