47
conf 5 ff=MMFF E=88.318 Rg=5.32 smiles=COC1=CC(=O)C(c2cc(OCc3ccc(C)cc3)ccc2OC)=CC1=O
C      7.94701800    -0.36646976     1.81714029
C      6.49683613    -0.26884587     1.44753710
C      5.85265962     0.97303344     1.42451035
C      4.49420732     1.06267708     1.10885226
C      3.75341505    -0.08990381     0.81763014
C      2.27979290    -0.00074409     0.49920154
C      4.39743752    -1.33425523     0.85909521
C      5.75533942    -1.42317942     1.17447851
C     -6.99383887     0.83771334     2.50174832
O     -6.17279643     1.78301745     1.82510349
C     -5.08601422     1.28267262     1.12020350
C     -4.05825914     2.10939916     0.90392765
C     -2.84032871     1.71966120     0.17292158
O     -1.91184813     2.51411705     0.07510805
C     -2.79166494     0.34961897    -0.40377496
C     -1.62236657    -0.10429440    -1.18982771
C     -0.36135295    -0.13228285    -0.56311880
C      0.76983585    -0.55628403    -1.25863960
O      2.04166890    -0.62502334    -0.76302921
C      0.63784577    -0.97034418    -2.58301092
C     -0.60392445    -0.94055254    -3.22365713
C     -1.73987712    -0.50092910    -2.53923643
O     -2.99393769    -0.42226856    -3.09108369
C     -3.12135491    -0.71485296    -4.47718677
C     -3.81335538    -0.49041392    -0.18647129
C     -5.01963618    -0.11251438     0.57738941
O     -5.90551361    -0.94554884     0.73126948
H      8.49129103     0.53066924     1.50386234
H      8.05001931    -0.48280893     2.90036629
H      8.41961105    -1.22160740     1.32254245
H      6.40585667     1.88196024     1.65030660
H      4.02066686     2.04185380     1.09155475
H      1.72687433    -0.51619888     1.29422477
H      1.96955191     1.05084779     0.45984895
H      3.84039784    -2.24297114     0.64007573
H      6.23056869    -2.40102671     1.20200000
H     -7.61502818     1.38897454     3.21447362
H     -6.39670894     0.11715615     3.07021898
H     -7.66776548     0.33919795     1.79929163
H     -4.07346813     3.12738386     1.27672607
H     -0.29027805     0.18801675     0.47196273
H      1.51623312    -1.30906123    -3.12855682
H     -0.64336919    -1.26505083    -4.25805638
H     -4.16718209    -0.55514693    -4.75674542
H     -2.87933662    -1.76290001    -4.68122881
H     -2.50824234    -0.03957739    -5.08309265
H     -3.81967895    -1.50291387    -0.57754341
