47
conf 7 ff=MMFF E=88.351 Rg=5.36 smiles=COC1=CC(=O)C(c2cc(OCc3ccc(C)cc3)ccc2OC)=CC1=O
C     -7.33309990     2.76808571    -1.69656907
C     -6.22008774     2.21136498    -0.85949444
C     -5.43787938     3.05778162    -0.06600552
C     -4.37882428     2.54530693     0.68758496
C     -4.08270715     1.17659405     0.65925224
C     -2.93225373     0.62070414     1.46067273
C     -4.84885029     0.33529143    -0.15820313
C     -5.90744326     0.84860959    -0.91139894
C      7.06666193    -0.03893264    -2.98856178
O      6.08067917    -1.06563710    -3.02744913
C      5.00728204    -0.91980133    -2.15866955
C      4.40610435    -2.03089243    -1.72207800
C      3.24850051    -2.02211006    -0.81076786
O      2.72769781    -3.08192023    -0.48111736
C      2.75816507    -0.69871177    -0.34166686
C      1.65463104    -0.60597629     0.62932725
C      0.41341397    -0.08609239     0.23172643
C     -0.64872813     0.01623986     1.13618201
O     -1.79412949     0.54131728     0.60607004
C     -0.46728610    -0.39627545     2.45593770
C      0.76473536    -0.91573455     2.86604802
C      1.81601462    -1.03662608     1.95403896
O      3.04730535    -1.49701435     2.34891417
C      2.97478363    -2.80979306     2.90722023
C      3.34359116     0.42361734    -0.77990236
C      4.47535259     0.41335217    -1.72871725
O      4.92678619     1.48259438    -2.12287904
H     -7.78425189     3.64209406    -1.21511738
H     -6.95132232     3.06266878    -2.67890863
H     -8.12757468     2.02683917    -1.83291465
H     -5.64512963     4.12504925    -0.03315219
H     -3.78069278     3.22457772     1.29077470
H     -2.72694891     1.28000629     2.31336621
H     -3.20582945    -0.37266494     1.83877612
H     -4.61782700    -0.72599925    -0.22024570
H     -6.48349284     0.17688924    -1.54385119
H      7.97772785    -0.43708091    -3.44586538
H      6.75026549     0.82070542    -3.58591380
H      7.30986176     0.25354699    -1.96158087
H      4.75183975    -3.01110343    -2.02974844
H      0.25755613     0.23958101    -0.79515762
H     -1.25718035    -0.32063978     3.19587080
H      0.89871131    -1.20544571     3.90421974
H      3.97721474    -3.24613921     2.86330569
H      2.67442540    -2.76251605     3.95860280
H      2.29769298    -3.46142367     2.34314299
H      3.02453907     1.40866149    -0.45509762
