47
conf 3 ff=MMFF E=88.318 Rg=5.32 smiles=COC1=CC(=O)C(c2cc(OCc3ccc(C)cc3)ccc2OC)=CC1=O
C      7.95955503     1.78977807    -0.73703508
C      6.50581432     1.44956138    -0.59542217
C      5.81029646     0.85500511    -1.65354508
C      4.44922896     0.56518371    -1.53200206
C      3.75604046     0.87080484    -0.35260469
C      2.27932180     0.57710691    -0.23447614
C      4.45096651     1.48228143     0.69868274
C      5.81261579     1.77215684     0.57639858
C     -7.01575726     2.65069446    -0.35642107
O     -6.23450915     2.27585860     0.77261061
C     -5.13029498     1.46825347     0.53426497
C     -4.13674458     1.50342842     1.42765829
C     -2.90593959     0.70319650     1.30778901
O     -2.01003932     0.84199473     2.13295855
C     -2.80409716    -0.23625914     0.15930467
C     -1.61943582    -1.10781741    -0.00844850
C     -0.35689263    -0.50306591    -0.16324905
C      0.78870449    -1.27967571    -0.32937678
O      2.06338297    -0.81208650    -0.48580232
C      0.67030956    -2.66820500    -0.35748659
C     -0.57310708    -3.28564455    -0.19627100
C     -1.72411136    -2.51531813    -0.01221752
O     -2.98155193    -3.03389689     0.17029102
C     -3.10035025    -4.44732773     0.27622844
C     -3.79106154    -0.27415296    -0.74689342
C     -5.00969808     0.55433032    -0.64717507
O     -5.86139594     0.45877066    -1.52346608
H      8.46693148     1.74753258     0.23250878
H      8.46475676     1.07818806    -1.39858173
H      8.06952932     2.79697573    -1.15052879
H      6.32417291     0.60970927    -2.58012174
H      3.92835575     0.09348618    -2.36279273
H      1.92737271     0.83324737     0.77258117
H      1.74916350     1.18933920    -0.97446082
H      3.93874727     1.73778498     1.62370885
H      6.32966090     2.25036519     1.40533886
H     -7.65674155     3.48440436    -0.05342158
H     -7.67093428     1.83002167    -0.66200555
H     -6.38914841     2.99800775    -1.18447334
H     -4.19159500     2.14824686     2.29754504
H     -0.29628430     0.58093376    -0.14570599
H      1.56024879    -3.27916847    -0.49402831
H     -0.60194013    -4.36988640    -0.21680187
H     -2.81724943    -4.93662065    -0.66135237
H     -2.51598360    -4.83245882     1.11837803
H     -4.15233736    -4.67993838     0.46761907
H     -3.75797498    -0.93512579    -1.60721481
