47
conf 6 ff=MMFF E=88.351 Rg=5.36 smiles=COC1=CC(=O)C(c2cc(OCc3ccc(C)cc3)ccc2OC)=CC1=O
C     -7.50254388    -2.70798248     0.36292270
C     -6.39753383    -1.70163316     0.23785344
C     -6.00831039    -1.22847617    -1.02012900
C     -4.95617493    -0.31712552    -1.14085440
C     -4.27369287     0.13581440    -0.00466652
C     -3.12870084     1.10938991    -0.13105772
C     -4.64599228    -0.36117553     1.25127381
C     -5.69798468    -1.27243917     1.37097353
C      7.12868575    -2.57793837    -1.31367228
O      6.49862720    -2.28632117    -0.07037710
C      5.32354728    -1.54928217    -0.13509150
C      5.01926193    -0.77241196     0.90914606
C      3.79863389     0.04956594     0.98005997
O      3.56980897     0.71050275     1.98698782
C      2.88641195     0.02099963    -0.19420630
C      1.68462208     0.87146638    -0.23450352
C      0.41034318     0.28687553    -0.17574409
C     -0.74616265     1.07267587    -0.21660423
O     -1.91353099     0.36444455    -0.15080261
C     -0.62997006     2.45800285    -0.32711441
C      0.63380689     3.05394666    -0.38730475
C      1.78642952     2.26716940    -0.32401040
O      3.03435058     2.82844422    -0.43183663
C      3.27339153     3.80280931     0.58493489
C      3.17272015    -0.76169916    -1.24292318
C      4.37429183    -1.61903546    -1.29230880
O      4.54323694    -2.34557582    -2.26494988
H     -8.02138221    -2.60119882     1.32137792
H     -7.09574582    -3.72136314     0.29150194
H     -8.24841838    -2.56913492    -0.42677306
H     -6.51951094    -1.57094632    -1.91705605
H     -4.66738652     0.03028763    -2.13025337
H     -3.14910631     1.79934318     0.72225115
H     -3.23965790     1.68774926    -1.05685717
H     -4.11012782    -0.04753669     2.14460041
H     -5.96414480    -1.64934312     2.35592775
H      8.16861050    -2.84615818    -1.10318228
H      6.65825777    -3.44294521    -1.78945442
H      7.13718263    -1.70867598    -1.97977203
H      5.67310312    -0.71437247     1.77177726
H      0.30465958    -0.79303061    -0.08926980
H     -1.49886845     3.10570986    -0.37854502
H      0.70678951     4.13148410    -0.50249229
H      2.89669149     3.48038199     1.56237964
H      4.35593736     3.93805078     0.66859218
H      2.83507059     4.76531538     0.30330592
H      2.54047433    -0.80462794    -2.12384574
