47
conf 4 ff=MMFF E=88.318 Rg=5.32 smiles=COC1=CC(=O)C(c2cc(OCc3ccc(C)cc3)ccc2OC)=CC1=O
C      8.04218283     1.35784469     0.63475761
C      6.57259387     1.09777909     0.48698964
C      5.89441136     1.49652894    -0.67008870
C      4.51941557     1.28131852    -0.79712910
C      3.79621716     0.66964581     0.23479509
C      2.30611303     0.45638985     0.11223645
C      4.47527999     0.28755507     1.40003110
C      5.84969023     0.50276847     1.52633287
C     -6.86970091     2.99840630     0.34408694
O     -6.11135570     2.62394689    -0.80057732
C     -5.04956922     1.75288858    -0.59517576
C     -4.05749439     1.76857037    -1.49076026
C     -2.86917383     0.90255269    -1.40400223
O     -1.96913678     1.02426339    -2.22736408
C     -2.81322172    -0.08083307    -0.28964793
C     -1.67454927    -1.01736983    -0.15736652
C     -0.38226609    -0.48399755     0.01357241
C      0.72227077    -1.32370969     0.14772425
O      2.01962860    -0.92791211     0.31542218
C      0.53274474    -2.70446692     0.12745943
C     -0.74110411    -3.25125635    -0.05041373
C     -1.85140202    -2.41690430    -0.20267882
O     -3.13422369    -2.86355292    -0.39829008
C     -3.32570337    -4.26439734    -0.55353139
C     -3.79883320    -0.10002178     0.61860860
C     -4.97349535     0.79287273     0.55294412
O     -5.82704225     0.71026902     1.42875192
H      8.54467728     1.32381350    -0.33764643
H      8.20460564     2.34290009     1.08287127
H      8.51156724     0.59844841     1.26897720
H      6.43358837     1.97648362    -1.48378149
H      4.01904615     1.59514326    -1.71062407
H      1.96563645     0.76563622    -0.88379689
H      1.80968832     1.06848825     0.87536953
H      3.93262163    -0.18578751     2.21580329
H      6.35224296     0.19898297     2.44172313
H     -7.46762665     3.87408026     0.07312387
H     -7.56553985     2.20220441     0.62339239
H     -6.22416217     3.28370844     1.18123661
H     -4.08105342     2.44564044    -2.33723665
H     -0.26607828     0.59541067     0.03391815
H      1.39040862    -3.36470061     0.23888825
H     -0.82556942    -4.33264153    -0.06790149
H     -4.38866016    -4.43584930    -0.74883419
H     -2.76370323    -4.64890979    -1.41104759
H     -3.06609894    -4.80045872     0.36508596
H     -3.79786681    -0.79177165     1.45503833
