47
conf 1 ff=MMFF E=88.170 Rg=5.35 smiles=COC1=CC(=O)C(c2cc(OCc3ccc(C)cc3)ccc2OC)=CC1=O
C      8.21027586     0.51946071    -0.59582048
C      6.71403622     0.50893032    -0.49381080
C      6.08897384     0.45817320     0.75708719
C      4.69572561     0.41429638     0.85287723
C      3.90313615     0.41744973    -0.30180097
C      2.39864912     0.36177513    -0.20471728
C      4.53167944     0.44134403    -1.55391217
C      5.92468732     0.48496336    -1.64876355
C     -7.08816667     2.96162125     0.36151651
O     -5.79638244     3.22519111     0.90003938
C     -4.81879534     2.27413840     0.64031230
C     -3.83656547     2.13086444     1.53516015
C     -2.72893256     1.17283462     1.37601761
O     -1.83345365     1.13674311     2.21237797
C     -2.74928828     0.28871977     0.17986516
C     -1.70526273    -0.74024232    -0.02303731
C     -0.36597380    -0.32305707    -0.14904689
C      0.65314812    -1.25328793    -0.34641905
O      1.98444105    -0.97515926    -0.47974480
C      0.33035977    -2.60661661    -0.43298671
C     -0.99222136    -3.03907874    -0.30178553
C     -2.01797814    -2.11489824    -0.08837499
O     -3.34036078    -2.44760514     0.06775032
C     -3.66948760    -3.83101862     0.10117876
C     -3.71342428     0.44598691    -0.73804840
C     -4.79256248     1.44514751    -0.60673001
O     -5.61003724     1.55883645    -1.51290185
H      8.59014673    -0.50614636    -0.63259123
H      8.53664530     1.05062765    -1.49614208
H      8.65667636     1.03205814     0.26278376
H      6.68373134     0.44868131     1.66771397
H      4.23360594     0.37040188     1.83671029
H      2.08096435     0.66615634     0.80063641
H      1.97093935     1.05659666    -0.93846121
H      3.93643457     0.41617468    -2.46408860
H      6.38962280     0.49571417    -2.63190381
H     -7.80779254     3.57684787     0.91043492
H     -7.13532870     3.26248275    -0.68879204
H     -7.37794080     1.91353621     0.49180444
H     -3.81065305     2.73137454     2.43735100
H     -0.14606930     0.73832001    -0.08380514
H      1.12125406    -3.33647181    -0.59369304
H     -1.18082370    -4.10525728    -0.36879425
H     -4.74665630    -3.91313638     0.27550024
H     -3.15942947    -4.34009284     0.92561671
H     -3.45090159    -4.31025365    -0.85861081
H     -3.76064502    -0.16312642    -1.63508759
