47
conf 2 ff=MMFF E=88.170 Rg=5.35 smiles=COC1=CC(=O)C(c2cc(OCc3ccc(C)cc3)ccc2OC)=CC1=O
C     -8.06578376    -1.59558295     0.57596350
C     -6.59505012    -1.35663020     0.40538934
C     -5.66365374    -2.18819507     1.03707276
C     -4.29363017    -1.94682946     0.90661430
C     -3.83130658    -0.86699140     0.14392592
C     -2.35348629    -0.59657423     0.00635123
C     -4.76613112    -0.01982205    -0.46585170
C     -6.13567342    -0.26173194    -0.33470151
C      6.92576508    -0.54389979    -3.30606531
O      5.81781220    -1.39258047    -3.02258541
C      4.81519002    -0.84738470    -2.23192316
C      4.10310167    -1.68076502    -1.46742250
C      3.00140264    -1.23858534    -0.59521942
O      2.35670662    -2.06875082     0.03555470
C      2.71585248     0.21993891    -0.53181857
C      1.66472734     0.75074956     0.36444866
C      0.33539418     0.33100814     0.16368108
C     -0.69116678     0.80616094     0.97811074
O     -2.01341207     0.47348806     0.88607786
C     -0.38979442     1.71704377     1.98937131
C      0.92491787     2.13790688     2.20815106
C      1.96214046     1.65489169     1.40646918
O      3.28226750     1.99885383     1.55720747
C      3.62147785     2.83312513     2.65820678
C      3.40431405     1.05980380    -1.31763602
C      4.47083861     0.61016271    -2.23439808
O      5.02123821     1.43489788    -2.95496145
H     -8.62154907    -1.25419146    -0.30369906
H     -8.27639154    -2.66324799     0.69829168
H     -8.43247342    -1.05921223     1.45651358
H     -5.99894368    -3.02943315     1.63953798
H     -3.58950974    -2.60476826     1.41133210
H     -2.13941844    -0.32286186    -1.03448924
H     -1.78634397    -1.50115431     0.26010595
H     -4.42993026     0.84099644    -1.03972508
H     -6.84202187     0.41403583    -0.81141718
H      7.75833821    -1.18025128    -3.62158669
H      6.69331029     0.12640335    -4.13826183
H      7.24924624     0.01347271    -2.42055749
H      4.30889714    -2.74510005    -1.45919938
H      0.13042737    -0.37429197    -0.63611656
H     -1.18836406     2.09631157     2.62377843
H      1.09925819     2.84079510     3.01583270
H      4.70740607     2.96782690     2.65204681
H      3.34997007     2.36392128     3.60959753
H      3.16353399     3.82244347     2.55733118
H      3.22050015     2.12944791    -1.31932819
