47
conf 9 ff=MMFF E=88.351 Rg=5.36 smiles=COC1=CC(=O)C(c2cc(OCc3ccc(C)cc3)ccc2OC)=CC1=O
C      7.60576103    -2.25330703    -0.97634235
C      6.45723391    -1.42923571    -0.47512525
C      5.91638307    -1.66415346     0.79380573
C      4.82437867    -0.92044446     1.24828224
C      4.25312171     0.07073298     0.44014273
C      3.06598315     0.86710416     0.92110739
C      4.77781700     0.28460709    -0.84124153
C      5.86956417    -0.45955249    -1.29481691
C     -7.11630049    -2.64485552    -1.12757427
O     -6.36562292    -1.76913403    -1.96268033
C     -5.23253991    -1.20087612    -1.39573206
C     -4.84523311    -0.00414586    -1.84781399
C     -3.65526956     0.70570567    -1.34710691
O     -3.34267828     1.78579103    -1.83578275
C     -2.87591008     0.05211260    -0.26207802
C     -1.71788085     0.72942641     0.34573256
C     -0.42407003     0.22778011     0.13742453
C      0.69129324     0.85057613     0.70729220
O      1.88423975     0.24939924     0.41722465
C      0.51267591     1.98213302     1.50260437
C     -0.77127611     2.49249947     1.71915928
C     -1.88029877     1.88036234     1.13016309
O     -3.15240512     2.33607080     1.37107428
C     -3.31508164     3.70111905     0.98308890
C     -3.24562920    -1.15237448     0.19280274
C     -4.41297234    -1.88187553    -0.34233575
O     -4.65987406    -3.00194264     0.09001232
H      7.23138459    -3.14760938    -1.48387331
H      8.22142440    -1.67973320    -1.67719885
H      8.25570296    -2.56063374    -0.15029638
H      6.33940954    -2.43300813     1.43645633
H      4.41714528    -1.12679029     2.23549372
H      3.15367039     1.89788949     0.55452589
H      3.05403494     0.88119771     2.01818263
H      4.33097032     1.02753744    -1.49845874
H      6.25493803    -0.28018212    -2.29598934
H     -8.11657191    -2.73972854    -1.56132922
H     -7.22915085    -2.24439874    -0.11452032
H     -6.66914790    -3.64277548    -1.11660727
H     -5.40297171     0.50731915    -2.62391899
H     -0.26979101    -0.65451255    -0.48112326
H      1.34628618     2.48840173     1.97793502
H     -0.89611547     3.35712227     2.36454557
H     -2.82251562     3.92055947     0.02889619
H     -4.38632559     3.88694836     0.86021115
H     -2.94587331     4.36868015     1.76788473
H     -2.71191240    -1.65980640     0.98983753
