12
bm_2_3_5_6_tetrachloro_1_4_benzoquinone_chloranil conf 0 ff=MMFF E=24.991
O     -0.62174415     2.59499423     0.04647025
C     -0.33591690     1.40202912     0.02512587
C      1.07858909     0.94605128    -0.01048378
Cl     2.27717327     2.19889044    -0.01951138
C      1.39002306    -0.35379443    -0.03380050
Cl     3.02601324    -0.92657754    -0.07560933
C      0.33591653    -1.40202889    -0.02513906
O      0.62174320    -2.59499365    -0.04650838
C     -1.07858911    -0.94605126     0.01048478
Cl    -2.27717298    -2.19889081     0.01952040
C     -1.39002294     0.35379433     0.03380732
Cl    -3.02601232     0.92657717     0.07564381
