14
SMD(acetonitrile)-opt r2scan/def2-svpd q=-1 m=2
C -1.35676607 -1.22304752 -0.00019346
C 0.03511051 -1.22601700 -0.00022356
C 0.75193607 0.00033208 -0.00000595
C 0.03485426 1.22652269 0.00021027
C -1.35702765 1.22276650 0.00017743
C -2.02939141 -0.00021475 -0.00000866
F -3.39538819 -0.00037660 -0.00000996
H -1.92442748 2.15655882 0.00028526
H 0.59262636 2.16265721 0.00034817
N 2.14442842 0.00037281 -0.00000450
O 2.77249872 -1.12120020 -0.00064603
O 2.77466931 1.12082745 0.00063772
H 0.59325209 -2.16195407 -0.00036035
H -1.92382710 -2.15704962 -0.00030235
