35
conf 2 ff=MMFF E=91.465 Rg=4.62 smiles=Cc1ccc(COC2=C(Cl)C(=O)c3ccccc3C2=O)cc1
C      6.53165904    -0.06026998    -0.14047281
C      5.05023067    -0.28205681    -0.06714178
C      4.53407096    -1.43086856     0.54194579
C      3.15334713    -1.62215196     0.64170915
C      2.26282395    -0.66040857     0.14711558
C      0.77052596    -0.87824777     0.23238141
C      2.78338984     0.49335214    -0.45518475
C      4.16374539     0.68432219    -0.55373302
O     -3.22378615     3.32762768    -0.33529465
C     -2.89325792     2.17145939    -0.09710645
C     -1.50758212     1.79283403     0.28020597
Cl    -0.36946869     3.09860803     0.38804700
C     -1.13372914     0.52593147     0.51357195
O      0.17682413     0.24735095     0.88769608
C     -2.14634589    -0.57198007     0.43230141
O     -1.85669021    -1.74190491     0.65785912
C     -3.53284965    -0.22528345     0.06869762
C     -4.49736666    -1.23998547    -0.02003406
C     -5.81395830    -0.92955448    -0.36416603
C     -6.17303622     0.39203645    -0.62055108
C     -5.21575777     1.40356659    -0.53244026
C     -3.89238932     1.09343147    -0.18650009
H      7.06578861    -1.01291063    -0.22051419
H      6.87627111     0.46456690     0.75580421
H      6.79456207     0.53388180    -1.02200471
H      5.20488899    -2.18661046     0.94445466
H      2.77974064    -2.52748638     1.11536517
H      0.38381626    -1.00831932    -0.78674691
H      0.56155546    -1.77870368     0.81954061
H      2.11461245     1.25824794    -0.84349637
H      4.54162357     1.59535467    -1.01233999
H     -4.22860781    -2.27657329     0.17933048
H     -6.55917890    -1.71953905    -0.43126775
H     -7.19892672     0.63635896    -0.88846490
H     -5.50654475     2.43392417    -0.73385135
