35
conf 0 ff=MMFF E=91.465 Rg=4.62 smiles=Cc1ccc(COC2=C(Cl)C(=O)c3ccccc3C2=O)cc1
C     -6.48784095     0.73430746    -0.09732512
C     -5.04078311     0.42047817     0.14085995
C     -4.67249664    -0.69063819     0.90699544
C     -3.32447935    -1.00399588     1.10089601
C     -2.31954379    -0.21998887     0.51948219
C     -0.86211435    -0.54370089     0.74923290
C     -2.69220639     0.88779056    -0.25438317
C     -4.03996687     1.19989301    -0.44854337
O      3.52650205     1.46079182    -2.52006057
C      3.07729419     0.76002893    -1.62014379
C      1.64106089     0.39336758    -1.52733418
Cl     0.62164094     1.00241090    -2.79296934
C      1.13906703    -0.34887361    -0.52916192
O     -0.21321932    -0.67500417    -0.51985649
C      2.05090887    -0.87487526     0.53351193
O      1.64190692    -1.57479684     1.45347324
C      3.48415274    -0.53486061     0.46280396
C      4.35624609    -1.01177670     1.45264766
C      5.71543875    -0.69840655     1.40165269
C      6.20924034     0.09044933     0.36476334
C      5.34409304     0.56575514    -0.62161523
C      3.97807369     0.25159458    -0.57205576
H     -7.09986643     0.42789323     0.75752268
H     -6.84177253     0.21196367    -0.99142490
H     -6.63687777     1.81062824    -0.23354701
H     -5.43431897    -1.32189634     1.35898773
H     -3.06677699    -1.87067888     1.70588620
H     -0.42232869     0.26191020     1.35144962
H     -0.77506246    -1.49222256     1.28957963
H     -1.93251759     1.51080880    -0.72111261
H     -4.30239111     2.05624375    -1.06570664
H      3.98184928    -1.63027173     2.26737689
H      6.38860904    -1.07088890     2.17108794
H      7.26853141     0.33552212     0.32276158
H      5.73994802     1.18103849    -1.42876147
