35
conf 3 ff=MMFF E=91.465 Rg=4.62 smiles=Cc1ccc(COC2=C(Cl)C(=O)c3ccccc3C2=O)cc1
C      6.47979249    -0.71945779     0.39724202
C      5.04170017    -0.33571242     0.21332265
C      4.03749503    -1.30853867     0.25451301
C      2.69502239    -0.94743647     0.11691176
C      2.32961991     0.39579014    -0.04784764
C      0.88007843     0.78396132    -0.22055190
C      3.33709690     1.36871866    -0.07948959
C      4.67990612     1.00665250     0.05730179
O     -3.64352194    -2.58595522     1.24463623
C     -3.16123604    -1.53192110     0.84573897
C     -1.74140341    -1.16033101     1.07337167
Cl    -0.79333139    -2.30707035     1.96675221
C     -1.20104862    -0.02173583     0.61415007
O      0.13076196     0.27320498     0.88694220
C     -2.05345785     0.95359963    -0.13386453
O     -1.60963711     2.01653305    -0.55421833
C     -3.46991360     0.61609119    -0.36739894
C     -4.28593338     1.51312646    -1.07254095
C     -5.62841939     1.20884377    -1.30351750
C     -6.16132772     0.01067806    -0.83268731
C     -5.35203814    -0.88328744    -0.13039482
C     -4.00290089    -0.57898840     0.10282845
H      6.73897771    -0.70109073     1.46026084
H      7.13978077    -0.03043859    -0.14025141
H      6.66959167    -1.72359008     0.00363304
H      4.29296644    -2.35630215     0.39600768
H      1.93279496    -1.72271205     0.14964706
H      0.78897793     1.87517380    -0.23467269
H      0.52672139     0.37511967    -1.17610106
H      3.08490396     2.41953795    -0.20494558
H      5.44273648     1.78189564     0.04158343
H     -3.88068832     2.45334477    -1.44437269
H     -6.25810658     1.90769280    -1.85035852
H     -7.20773042    -0.22830987    -1.01115061
H     -5.77822992    -1.81708623     0.23448934
