35
conf 8 ff=MMFF E=91.465 Rg=4.62 smiles=Cc1ccc(COC2=C(Cl)C(=O)c3ccccc3C2=O)cc1
C      6.53019220     0.06864820     0.24007533
C      5.04826745    -0.13496454     0.34794080
C      4.51023406    -0.89040080     1.39532319
C      3.12745296    -1.05207034     1.51664539
C      2.25604461    -0.44850111     0.60069801
C      0.76266867    -0.64343679     0.71690994
C      2.79812580     0.31456466    -0.44275562
C      4.18048353     0.47649835    -0.56287231
O     -3.22441037     2.72397253    -1.87733127
C     -2.89890717     1.81509821    -1.12188253
C     -1.53068816     1.68936933    -0.55797805
Cl    -0.40669324     2.92966461    -1.01654177
C     -1.16103351     0.68109677     0.24576614
O      0.13171782     0.64074255     0.75791062
C     -2.16216652    -0.35895978     0.63745746
O     -1.87681035    -1.28695055     1.38639301
C     -3.53167945    -0.25533508     0.10034195
C     -4.48489692    -1.22359078     0.44911649
C     -5.78530270    -1.14135019    -0.05127118
C     -6.13941902    -0.09464287    -0.89996241
C     -5.19338347     0.87031184    -1.24812368
C     -3.88629549     0.78934655    -0.74599608
H      7.07307780    -0.79977518     0.62782130
H      6.83153971     0.19941334    -0.80458479
H      6.82843530     0.95512595     0.80817069
H      5.16539711    -1.35911222     2.12623056
H      2.73687180    -1.64940562     2.33773863
H      0.42596272    -1.23669566    -0.14318514
H      0.53107607    -1.17981280     1.64314382
H      2.14426663     0.79798567    -1.16516929
H      4.57457747     1.08591152    -1.37305040
H     -4.21993332    -2.04571551     1.11273877
H     -6.52182827    -1.89411052     0.22225060
H     -7.15272569    -0.02828782    -1.29077083
H     -5.48021807     1.68536808    -1.91157726
