35
conf 1 ff=MMFF E=91.465 Rg=4.62 smiles=Cc1ccc(COC2=C(Cl)C(=O)c3ccccc3C2=O)cc1
C      6.53141811    -0.03403413    -0.24682203
C      5.04894963     0.15633932    -0.37028019
C      4.52713000     1.34654649    -0.88824528
C      3.14547905     1.53895149    -0.97167250
C      2.25969517     0.54996122    -0.52458504
C      0.76636439     0.74717770    -0.63748163
C      2.78593686    -0.63800148     0.00146870
C      4.16721725    -0.82926328     0.08540584
O     -3.20858714    -2.32989272     2.31170696
C     -2.88343767    -1.42242587     1.55441654
C     -1.49979098    -0.88664288     1.48900604
Cl    -0.35592814    -1.61148048     2.57444056
C     -1.13181540     0.08617545     0.64196058
O      0.17715975     0.55690518     0.65307025
C     -2.14927175     0.70278856    -0.26466893
O     -1.86505671     1.60882815    -1.04043541
C     -3.53389338     0.19759058    -0.21572336
C     -4.50286475     0.75669653    -1.06205711
C     -5.81775493     0.28956026    -1.02956751
C     -6.17069147    -0.73527202    -0.15410897
C     -5.20897212    -1.29291398     0.68937794
C     -3.88730586    -0.82452305     0.65822612
H      6.87760429     0.34154006     0.72097133
H      6.79773300    -1.09285304    -0.33175023
H      7.06134902     0.49847511    -1.04358784
H      5.19421215     2.13444534    -1.23084527
H      2.76741586     2.47206250    -1.38390730
H      0.37993760     0.02945623    -1.37276168
H      0.55286202     1.76661037    -0.97574109
H      2.12092345    -1.42047742     0.36008097
H      4.54956359    -1.75413030     0.51146248
H     -4.23892112     1.55912243    -1.74976295
H     -6.56644491     0.72641507    -1.68725544
H     -7.19524522    -1.10059819    -0.12674361
H     -5.49496965    -2.09313920     1.37099747
