35
conf 9 ff=MMFF E=91.465 Rg=4.62 smiles=Cc1ccc(COC2=C(Cl)C(=O)c3ccccc3C2=O)cc1
C      6.50064674    -0.03827621     0.64415600
C      5.02066250     0.19558146     0.57972278
C      4.13917045    -0.87928205     0.42429703
C      2.76284537    -0.65911379     0.33040043
C      2.24272474     0.64186715     0.37335470
C      0.75288267     0.87857946     0.29583837
C      3.12897192     1.71690213     0.51987346
C      4.50559225     1.49583470     0.61466941
O     -3.11128115    -2.99449573    -1.71253684
C     -2.80843189    -1.88396895    -1.29096794
C     -1.41498966    -1.37028448    -1.30717585
Cl    -0.22412975    -2.43521966    -1.98522885
C     -1.07341515    -0.16780530    -0.82071702
O      0.24865303     0.25902645    -0.89193285
C     -2.12954681     0.73269815    -0.26296924
O     -1.86882003     1.84854805     0.17337462
C     -3.52406514     0.25344918    -0.24203683
C     -4.52966696     1.07877502     0.28273662
C     -5.85449003     0.64033411     0.31137093
C     -6.18089910    -0.62088101    -0.18265719
C     -5.18267617    -1.44378547    -0.70583158
C     -3.85095713    -1.00469351    -0.73561378
H      6.72359985    -1.00467105     1.10849744
H      6.99200362     0.73232822     1.24744821
H      6.92608458    -0.02336803    -0.36396400
H      4.51798530    -1.89761177     0.37329558
H      2.09769662    -1.51165604     0.21266351
H      0.29163338     0.46248619     1.20093483
H      0.55177955     1.95386653     0.24525168
H      2.75568451     2.73815241     0.55542172
H      5.17410346     2.34791532     0.71571426
H     -4.28661507     2.06716459     0.67068279
H     -6.63157564     1.28388935     0.71868800
H     -7.21309958    -0.96446823    -0.16181198
H     -5.44806128    -2.42781718    -1.09055000
