35
conf 6 ff=MMFF E=91.465 Rg=4.62 smiles=Cc1ccc(COC2=C(Cl)C(=O)c3ccccc3C2=O)cc1
C      6.40197195     0.29571927     1.26809900
C      4.97174278     0.41694248     0.83342156
C      4.07048347    -0.62819232     1.06132536
C      2.73044673    -0.50260770     0.68703288
C      2.26210802     0.67733512     0.09263134
C      0.81865012     0.80442456    -0.33392852
C      3.16528722     1.72572285    -0.12590151
C      4.50585881     1.59903596     0.24794478
O     -3.51325063    -2.57850567     1.60436087
C     -3.08589435    -1.62726272     0.95999267
C     -1.75295661    -1.02133791     1.20889583
Cl    -0.82814350    -1.73018215     2.49507128
C     -1.26837159     0.00074428     0.48792711
O     -0.02091365     0.53506533     0.79366550
C     -2.10195576     0.60087896    -0.59944760
O     -1.71048784     1.54936471    -1.27073453
C     -3.43406904     0.02607683    -0.86378800
C     -4.22999196     0.56889165    -1.88341696
C     -5.49274861     0.03618067    -2.14775349
C     -5.96578568    -1.03816061    -1.39722197
C     -5.17640529    -1.57977292    -0.38190231
C     -3.90739897    -1.04552253    -0.11476388
H      6.51149502     0.65010226     2.29763435
H      6.74000555    -0.74447382     1.21364296
H      7.05875614     0.88444617     0.61904793
H      4.40490220    -1.54882189     1.53429211
H      2.04973936    -1.33048772     0.87242394
H      0.62476670     1.82439366    -0.68223715
H      0.63969097     0.09756534    -1.15454336
H      2.83162625     2.65424596    -0.58424547
H      5.18485822     2.43180104     0.07876254
H     -3.87122806     1.40955383    -2.47592553
H     -6.10720733     0.46059339    -2.93911222
H     -6.95007861    -1.45466057    -1.60122497
H     -5.55550205    -2.41909579     0.19997544
