35
conf 7 ff=MMFF E=91.465 Rg=4.62 smiles=Cc1ccc(COC2=C(Cl)C(=O)c3ccccc3C2=O)cc1
C     -6.37392782    -1.33679972     0.49861566
C     -4.94402141    -0.89076796     0.57359965
C     -4.43765478    -0.32595375     1.74908004
C     -3.09657173     0.05824945     1.83168717
C     -2.23304995    -0.12912481     0.74456947
C     -0.78961480     0.30875964     0.82472922
C     -2.74170917    -0.70291537    -0.42886710
C     -4.08221048    -1.08758482    -0.51040349
O      3.42419558    -1.51471366    -2.76487116
C      3.02853026    -0.89491902    -1.78404951
C      1.72253161    -1.16967927    -1.13236388
Cl     0.78233181    -2.44950821    -1.83239400
C      1.27174711    -0.47536047    -0.07690993
O      0.04887129    -0.80457978     0.49868973
C      2.11834095     0.60712192     0.51378459
O      1.75817791     1.25423563     1.49103916
C      3.42459835     0.89663919    -0.10643570
C      4.23193029     1.91224682     0.42698989
C      5.47052489     2.20019041    -0.14849319
C      5.90798854     1.47732429    -1.25635738
C      5.10720856     0.46605555    -1.78873296
C      3.86245093     0.17522050    -1.21153520
H     -7.01301470    -0.70710289     1.12653389
H     -6.75285032    -1.26326784    -0.52620114
H     -6.46022833    -2.37476563     0.83433415
H     -5.08513779    -0.18115903     2.61102904
H     -2.73107344     0.50002778     2.75624351
H     -0.55921616     0.63721229     1.84368966
H     -0.64572813     1.14591568     0.12935201
H     -2.09217964    -0.86400024    -1.28634967
H     -4.44803166    -1.54418335    -1.42734849
H      3.90094711     2.48321241     1.29355949
H      6.09395903     2.98833498     0.26874730
H      6.87341835     1.69975835    -1.70623664
H      5.45846776    -0.09411908    -2.65451574
