35
conf 4 ff=MMFF E=91.465 Rg=4.62 smiles=Cc1ccc(COC2=C(Cl)C(=O)c3ccccc3C2=O)cc1
C      6.53123921    -0.13481208    -0.04713497
C      5.04708173    -0.18070450     0.16349127
C      4.17407495    -0.12531077    -0.92797874
C      2.79116131    -0.13405550    -0.73040565
C      2.25449430    -0.18150560     0.56367974
C      0.75943776    -0.21508738     0.77664723
C      3.13154037    -0.22765378     1.65513118
C      4.51483460    -0.21980464     1.45668970
O     -3.18569528     1.37285377    -3.20842071
C     -2.86912282     1.00774543    -2.08183977
C     -1.48993878     1.14821791    -1.54898180
Cl    -0.33846883     1.88796178    -2.61616445
C     -1.13121235     0.72413624    -0.32802316
O      0.17395906     0.91133915     0.11538590
C     -2.15511112     0.11031463     0.57323296
O     -1.87948768    -0.27255430     1.70502124
C     -3.53554789    -0.03405808     0.07488503
C     -4.51040200    -0.61320659     0.90073627
C     -5.82144389    -0.75859998     0.44440441
C     -6.16466369    -0.32745782    -0.83527915
C     -5.19707634     0.24957650    -1.65877460
C     -3.87926805     0.39669059    -1.20171821
H      6.80590310    -0.60697124    -0.99627191
H      6.87605715     0.90372314    -0.05554381
H      7.05551258    -0.67571481     0.74771826
H      4.56456739    -0.07308703    -1.94182462
H      2.13307076    -0.09296652    -1.59547427
H      0.37755075    -1.16506827     0.38068833
H      0.53717682    -0.15033399     1.84699931
H      2.74528968    -0.26398607     2.67152420
H      5.17497980    -0.24402233     2.32085486
H     -4.25407035    -0.95287746     1.90343799
H     -6.57472650    -1.20776334     1.08841534
H     -7.18620474    -0.43933988    -1.19285309
H     -5.47549101     0.58438283    -2.65734929
