35
conf 5 ff=MMFF E=91.465 Rg=4.62 smiles=Cc1ccc(COC2=C(Cl)C(=O)c3ccccc3C2=O)cc1
C      6.49274189     0.84112090    -0.20531175
C      5.04275879     0.54134482     0.03318328
C      4.04932966     1.30926563    -0.58318482
C      2.69889514     1.00949756    -0.38817909
C      2.31613640    -0.07458609     0.41380132
C      0.85577609    -0.38441972     0.64407999
C      3.31370339    -0.84733531     1.02233975
C      4.66440211    -0.54630713     0.82755900
O     -3.50406621     1.55161981    -2.70402461
C     -3.06354090     0.87361996    -1.78263420
C     -1.62978975     0.50233971    -1.67160692
Cl    -0.60018711     1.07108476    -2.94770765
C     -1.13723920    -0.21466889    -0.65054982
O      0.21324368    -0.54730428    -0.62458673
C     -2.05770653    -0.70654539     0.42099572
O     -1.65748960    -1.38292616     1.36218429
C     -3.48873386    -0.36132024     0.33280246
C     -4.36879580    -0.80634973     1.33041416
C     -5.72602264    -0.48759268     1.26307868
C     -6.20992109     0.27490378     0.20208158
C     -5.33683455     0.71844746    -0.79206275
C     -3.97277544     0.39883258    -0.72609973
H      6.84889889     0.29248410    -1.08262335
H      7.09838920     0.55533280     0.66114570
H      6.64816142     1.91249486    -0.37032886
H      4.31965504     2.14690956    -1.22221810
H      1.94508795     1.62324786    -0.87623881
H      0.76075448    -1.31725356     1.20979742
H      0.41689566     0.43969559     1.22140622
H      3.04810456    -1.69566105     1.64952478
H      5.42038051    -1.16871303     1.30112620
H     -4.00217358    -1.40407056     2.16396743
H     -6.40539747    -0.83531538     2.03862610
H     -7.26766640     0.52410379     0.14732029
H     -5.72497474     1.31326377    -1.61807716
