52
SMD(acetonitrile)-opt r2scan/def2-svp q=0 m=1
C 4.82949742 0.54504043 -0.64409008
N 3.40749226 0.47039021 -0.37844991
C 2.50042877 1.15192808 -1.17467540
C 1.15330797 1.01455121 -1.02954136
C 0.56187987 0.12492106 -0.03553322
C -0.81532928 -0.00335297 0.16436772
C -1.81345995 0.74348124 -0.59284605
C -3.14804018 0.63521531 -0.34218860
N -3.65300282 -0.18232166 0.65242558
C -5.07830895 -0.31288406 0.86968155
C -2.75263033 -0.94784636 1.37290897
C -1.40819680 -0.88317755 1.16552335
C 1.56252425 -0.61197377 0.72917393
C 2.89940994 -0.43312655 0.54239267
H 5.09407505 1.56469607 -0.95971101
H 5.38734670 0.31560217 0.27438999
H 5.13571948 -0.16195225 -1.43663359
H 2.94292059 1.81915527 -1.91925935
H 0.52112744 1.60967118 -1.69244916
H -1.51361369 1.42565185 -1.39154213
H -3.89451921 1.20036851 -0.90665915
H -5.27965716 -0.46297248 1.94052655
H -5.50134252 -1.16421823 0.30610160
H -5.58388633 0.60942998 0.55153265
H -3.19581310 -1.60431412 2.12648008
H -0.77905030 -1.51902708 1.79258428
H 1.26156011 -1.33337018 1.49232366
H 3.64866317 -0.98168835 1.11943855
C 1.48989622 -2.18095440 -2.72554982
C 2.87563102 -1.88276284 -3.01577012
N 3.99080158 -1.64358259 -3.24797511
H 1.24598935 -3.19737930 -3.06993499
H 1.31524794 -2.11279887 -1.64055883
H 0.83611104 -1.45931990 -3.23791715
C 2.21884771 2.72120771 2.18957412
C 3.65935633 2.74092246 2.04877962
N 4.81786315 2.75971955 1.93650118
H 1.75410752 2.43740549 1.23194719
H 1.92741436 1.99162644 2.95986298
H 1.85880594 3.71871112 2.48386748
C -2.00090908 -2.46593308 -2.26612048
C -3.31355593 -2.73949363 -1.72204757
N -4.36870745 -2.96215060 -1.28402244
H -1.33235558 -2.10976649 -1.46668219
H -1.58222853 -3.38113468 -2.71137643
H -2.07186636 -1.68824728 -3.04153897
C -1.32193374 2.74708679 2.38196291
C -2.73098391 2.50921936 2.61252394
N -3.86340924 2.31384754 2.79894784
H -0.84301615 3.09015710 3.31144840
H -0.83672107 1.81836557 2.04099341
H -1.19204119 3.51636432 1.60535185
