18
bm_1_4_naphthoquinone conf 0 ff=MMFF E=34.265
O     -1.62322430     2.46873346     0.05942827
C     -1.42130252     1.26331867    -0.00643113
C     -2.55373160     0.32566401    -0.13808885
C     -2.36911115    -0.99438819    -0.21252439
C     -1.02152800    -1.59515473    -0.16755214
O     -0.88504320    -2.80946036    -0.23803894
C      0.13330170    -0.68484452    -0.03627547
C      1.42927420    -1.21378563     0.01013539
C      2.52664860    -0.35968109     0.13416857
C      2.33370403     1.01992080     0.21192141
C      1.04279930     1.54959618     0.16590358
C     -0.05965691     0.69485063     0.04149446
H     -3.54244884     0.76880017    -0.17087277
H     -3.19931571    -1.68461656    -0.30922371
H      1.58717864    -2.28934821    -0.04999568
H      3.53315401    -0.77119522     0.17021431
H      3.18972161     1.68444159     0.30857739
H      0.89958012     2.62714898     0.22715969
