42
mv_ip2/s0 q=0 m=3 E=-66830.238397eV conf=1 model=uma-s-1p2p1
C        5.88703815       0.42401794      -0.15214306      -0.43015695      -1.61135423       0.68155748
N        4.44349431       0.47983281       0.01957665       1.42318308      -1.34991622       0.26296943
C        3.73625760      -0.67799790       0.26698319      -1.26711726       0.41556478      -0.68224722
C        2.39543578      -0.69222559       0.29265552      -0.12219494       3.49120855      -1.34255195
C        1.58248589       0.49775780       0.10764473      -0.50268275      -0.49016052       1.52222419
C       -1.37632068      -0.24534239       0.18391956      -2.62516999       0.10172420      -1.15076673
C       -2.13417577       0.70197735       0.98898226       0.25042686      -0.25162727      -0.45590600
C       -2.85131620       0.04057319      -0.05049283       0.66787058      -0.48482987       1.09760368
N       -3.56369110      -1.17029944       0.41342501      -2.82518816       0.81606686      -0.40867266
C       -5.01648886      -1.22507319       0.39395914       1.02110624      -0.19273138      -0.10532074
C       -2.77235667      -2.03614839       0.89472379       0.02416633       0.28951541       0.70589089
C       -1.32286752      -1.66963437       0.75173701      -0.73454624       0.26096287       0.07616562
C        2.38033084       1.63695189      -0.33047222    -887.00695801    -600.96173096    -418.53558350
C        3.72911656       1.60033097      -0.30670171       0.51132804       1.07407057      -0.51234746
F       -3.84220399       1.71302950       2.24040842    -703.74188232     -18.81079102     759.40521240
P       -2.19403777       1.74900631       2.30907036     954.94146729    -637.62414551    -803.49090576
F       -2.27486847       3.31478711       2.13156085    -632.56018066     576.52270508    -241.98510742
F        0.94074175       0.79502176       1.43624600     291.40924072     421.02572632     622.95324707
F       -2.67038064       1.15076085      -5.20085227     293.75381470     -14.32296181    -399.10272217
F        0.34537489       0.72882156      -2.37426339      87.60760498    -147.46827698      26.01451874
F        0.23213185      -1.22211170      -1.39764096    -443.70703125     446.76263428    -210.60905457
F       -0.74052447      -1.74874414       1.99422024     704.86016846      16.64503098    -758.51293945
P        0.01691782       0.34094583      -0.86836623    -959.88940430     632.86309814     811.41363525
F       -2.30167788       1.47278598       3.86950057     632.91668701    -578.07464600     244.16561890
F        1.75022328      -1.82453546       0.65664085     602.70434570     171.22570801    -209.66833496
F       -2.67037800       1.15063760      -5.20087225    -288.99020386      24.20180702     391.41055298
F       -0.44053211       1.86407677      -0.66985230     -89.75022125     148.39112854     -20.86165428
F        2.08796258      -2.91207001      -2.56293841     440.40118408    -439.52023315     208.37245178
H        6.15762799       0.15674484      -1.17752328      -0.45343310       0.09987464      -0.57901931
H        6.30785346      -0.31219291       0.53231264       0.01430471       0.21973838      -0.26061946
H        6.32008074       1.39569051       0.08747888       0.03246771       1.23549211       0.33127487
H        4.30441944      -1.57169971       0.47519988       0.37492251      -0.06333900       0.11428697
H        1.39295414      -2.33143276      -2.34891572       1.41988349      -2.21080017       0.56614161
H       -0.79000618       1.76453335       2.46511200      -0.02602288       0.16630560       0.21854489
H       -3.26572712       0.46482635      -0.95837133      -0.43987659      -0.15876062      -0.80234760
H       -5.39618770      -0.32855659       0.88148118       0.08623359      -0.33487275       0.19773676
H       -5.35490171      -2.11534942       0.91535323       0.00425471      -0.11314449      -0.05160422
H       -5.37299802      -1.24870781      -0.63416050       0.07583579       0.32812744       0.22337261
H       -3.13285602      -2.93673295       1.38078388       0.62906426      -0.67337763      -0.79734963
H       -0.80474327      -2.37146361       0.10396104      -0.06719118      -1.14677918       0.36982042
H        1.86024534       2.53723476      -0.61191786       0.08177644      -0.29847249      -0.13162281
H        4.31818070       2.46907304      -0.56067116      -0.07270318       0.02593810      -0.05685415
