42
Properties=species:S:1:pos:R:3 SMD(acetonitrile)-opt=T r2scan/def2-svp=T q=2 m=1 pbc="F F F"
C        4.94253781       0.37142553      -0.53172543
N        3.48712969       0.27772117      -0.34820752
C        2.68934242       1.25714179      -0.82865659
C        1.31362815       1.17479175      -0.70865651
C        0.73401861       0.06442844      -0.07179670
C       -0.73125275      -0.04621121       0.08114631
C       -1.60294185       0.49619053      -0.87796327
C       -2.97084251       0.37649511      -0.71094260
N       -3.48410280      -0.24974261       0.37123805
C       -4.94080900      -0.39765927       0.50127672
C       -2.67219453      -0.77924002       1.31310359
C       -1.29667776      -0.69532835       1.19164540
C        1.59076209      -0.93646146       0.41682505
C        2.95919976      -0.80685420       0.26145574
H        5.23258570       1.42779082      -0.53765107
H        5.43956102      -0.15599898       0.28973425
H        5.20736626      -0.09521500      -1.49141418
H        3.18989795       2.10308213      -1.30317532
H        0.70999032       1.99909180      -1.09303285
H       -1.23147742       0.99763643      -1.77329546
H       -3.68966224       0.77230115      -1.43060680
H       -5.20213337      -0.42773579       1.56466804
H       -5.24441974      -1.33555350       0.01441705
H       -5.42984551       0.45207906       0.01251198
H       -3.16115249      -1.26358995       2.16022925
H       -0.67987362      -1.11907386       1.98612245
H        1.20671403      -1.83455846       0.90412203
H        3.66714484      -1.55845103       0.61531612
F        3.37122655      -4.34195244      -2.80452817
P        3.38977352      -2.92849471      -3.64528669
F        4.60764762      -2.37511164      -2.68837630
F        4.49495771      -3.56258163      -4.68509350
F        2.28457720      -2.29439382      -2.60546089
F        3.40827017      -1.51503120      -4.48603206
F        2.17191516      -3.48190190      -4.60219220
F       -3.40528026       1.54301679       4.50906517
P       -3.38673329       2.95647452       3.66830665
F       -2.16885919       3.50985759       4.62521704
F       -2.28154910       2.32238760       2.62849984
F       -4.49192961       3.59057541       4.70813245
F       -3.36823664       4.36993803       2.82756128
F       -4.60459165       2.40306733       2.71140114
