56
cfg5 ip=3.2 off=3.2 par E=-31287.5188 fmax=0.050
C        4.96310702      -0.01911836       0.16726439      -0.00888409       0.00610163       0.00325032
N        3.49847272      -0.01347830       0.07589024      -0.00621204      -0.00569250       0.01070441
C        2.81390163      -1.11663791      -0.31312309      -0.00408822      -0.00354937      -0.00070393
C        1.45535150      -1.14072617      -0.36163069      -0.02485155      -0.00612577       0.03421757
C        0.67732304      -0.00192216       0.00391575      -0.02605520       0.00422049       0.01024833
C       -0.74473043       0.01359272      -0.05404789      -0.00397004       0.00078494      -0.02229837
C       -1.51016348      -1.09803382      -0.51714965      -0.00182968      -0.00574548       0.03569315
C       -2.85947633      -1.03320868      -0.62626337       0.00723866      -0.00672855      -0.01789368
N       -3.55258614       0.09111307      -0.29319119       0.00369196       0.00541545       0.00905744
C       -4.99583693       0.14006645      -0.51232914       0.00776110      -0.00007631       0.00797309
C       -2.87031626       1.17270247       0.16457290       0.00764045       0.00876784      -0.01089448
C       -1.51794378       1.15952109       0.29520014      -0.00703767      -0.00847384       0.02817938
C        1.44658731       1.14111261       0.37989316      -0.01416120      -0.03014320       0.02625284
C        2.80399390       1.10752894       0.40023282      -0.02013266       0.00621266      -0.00979731
H        5.34211188      -0.94420780      -0.25617175       0.00992239       0.00950395      -0.01767182
H        5.37039868       0.82256073      -0.38801098       0.00534598       0.00296426      -0.02213412
H        5.26815429       0.04959920       1.20979525       0.02814238       0.00310563       0.01237516
H        3.41072470      -1.97380551      -0.58928719       0.00283216      -0.00710348       0.00719693
H        0.99831681      -2.05873103      -0.69822163      -0.01279203       0.02136558       0.00746231
H       -1.04040637      -2.01973210      -0.82437269      -0.00044646      -0.00204346      -0.00294401
H       -3.44799924      -1.85899427      -1.00054754      -0.02212609       0.00222530      -0.02246794
H       -5.48991198      -0.61753804       0.09543615       0.00267171      -0.01765582      -0.00259382
H       -5.36525063       1.12266257      -0.23451839      -0.01034988       0.01034724       0.01287457
H       -5.22004758      -0.03435044      -1.56398713      -0.00271766      -0.00098364       0.00135318
H       -3.46158190       2.04195039       0.41185048      -0.02118913       0.01415598      -0.01630973
H       -1.05720225       2.06609477       0.65819376      -0.00190443      -0.01066749      -0.00583087
H        0.97864280       2.08038379       0.63136806      -0.00205551      -0.00602384      -0.00456655
H        3.39531869       1.97438001       0.65989570       0.01510666      -0.00171508       0.01178234
C        1.64582870      -1.18142139       3.25564520      -0.00671050      -0.00012851      -0.00471055
N        0.20270339      -1.12597524       3.03965634       0.00253694       0.00081736      -0.00953309
C       -0.48520142      -2.21953239       2.61381423      -0.01988663      -0.00279715       0.00520373
C       -1.83681352      -2.21223187       2.50350667       0.02060621       0.01588236      -0.03171220
C       -2.60868953      -1.06055265       2.83936509       0.01407966      -0.00808233       0.01610043
C       -4.02972967      -1.04459336       2.78317315       0.01133522       0.00681028       0.00122919
C       -4.80021533      -2.19115269       2.41657170       0.00454610       0.02424210      -0.01143652
C       -6.15761519      -2.15382358       2.39117750       0.03476857       0.00474465       0.02318526
N       -6.85086120      -1.02869970       2.70589157       0.00456297      -0.01028073      -0.00190724
C       -8.31690011      -1.03356419       2.63903742       0.00867915      -0.00432705       0.00339839
C       -6.16603101       0.07305195       3.09723968       0.01391836       0.01311223      -0.00617758
C       -4.80742324       0.09642546       3.14096503       0.01777956      -0.00064855      -0.04638389
C       -1.84100919       0.05690101       3.28583446       0.01061972      -0.00125755      -0.02995354
C       -0.48813893      -0.00286760       3.37760863      -0.01932439      -0.00170026       0.01712190
H        2.04213963      -2.07352480       2.77929378       0.01094364      -0.00365924      -0.00833796
H        2.11291573      -0.30108431       2.81612318       0.00314023       0.00630669       0.00623012
H        1.87080265      -1.21723107       4.32144690       0.00371794      -0.00058619       0.00257865
H        0.10539785      -3.09205897       2.37611319       0.02564632      -0.02043449       0.02561388
H       -2.30077233      -3.12520612       2.16403879      -0.00130110      -0.00563058      -0.00410302
H       -4.33459191      -3.13176423       2.16629419       0.00690816       0.01391725       0.00077068
H       -6.75044527      -3.01933698       2.13042199      -0.01267980       0.01021047      -0.03375693
H       -8.72402399      -1.71894010       3.37943791      -0.00585844      -0.00196520       0.02412278
H       -8.68310544      -0.03041299       2.83472533      -0.01655670      -0.00684514       0.01546732
H       -8.63355548      -1.33978685       1.64442282      -0.02992712      -0.00410493      -0.00750696
H       -6.76142447       0.92705005       3.38639662      -0.00773618       0.00803157      -0.01975313
H       -4.34847724       1.01306681       3.47790469       0.00987482      -0.00943256       0.00140908
H       -2.30845919       0.98140781       3.58983730      -0.00381201      -0.00210749      -0.00909198
H        0.10312395       0.83156013       3.72711039       0.02057944      -0.00252990       0.01941883
