56
SMD(acetonitrile)-opt r2scan/def2-svp q=2 m=1
C 4.32747803 -0.19538813 0.35258806
N 2.86999215 -0.16161463 0.30666651
C 2.16724609 -1.22196842 -0.19561884
C 0.80529731 -1.17789347 -0.34183984
C 0.05418899 -0.01476164 0.01932122
C -1.36994500 0.06719204 -0.14514152
C -2.14633195 -1.01040866 -0.67616134
C -3.50263669 -0.90029005 -0.84036537
N -4.17593085 0.24217129 -0.50471238
C -5.60061301 0.36835528 -0.79148216
C -3.47324249 1.30170183 -0.00071689
C -2.11675424 1.24207803 0.18541464
C 0.83295261 1.06990224 0.53220250
C 2.19412813 0.97358229 0.66092704
H 4.66368994 -1.23009368 0.49325746
H 4.74794904 0.19621405 -0.58765403
H 4.68086524 0.42171840 1.18824836
H 2.75795308 -2.09941957 -0.46672149
H 0.31999479 -2.07054769 -0.73835316
H -1.68807429 -1.95874971 -0.95942923
H -4.11233948 -1.71180669 -1.24311833
H -6.08297292 -0.61128878 -0.68349150
H -6.05278670 1.07890859 -0.08866039
H -5.75155217 0.73272368 -1.82039791
H -4.06007189 2.18945797 0.24399108
H -1.63420290 2.12683151 0.60241610
H 0.37020726 2.00590076 0.84744414
H 2.80544903 1.78995005 1.05120058
C 3.87631352 -1.58929439 3.58834705
N 2.45486126 -1.41652610 3.30978198
C 1.72262865 -2.45274297 2.79859516
C 0.36673139 -2.35734956 2.62296044
C -0.34791023 -1.16755477 2.96855502
C -1.77106851 -1.05095355 2.81794815
C -2.58235307 -2.11777313 2.31650354
C -3.94226303 -1.98884962 2.20538177
N -4.58560796 -0.83591321 2.56196060
C -6.04211586 -0.76198992 2.53712901
C -3.85087211 0.20908583 3.05106662
C -2.48898941 0.13070525 3.18405572
C 0.45961613 -0.11296970 3.50099368
C 1.81317002 -0.26026912 3.65845975
H 4.31823609 -2.25261756 2.83411334
H 4.37590650 -0.61328442 3.55578228
H 4.01769095 -2.03416934 4.58646989
H 2.28536608 -3.35253832 2.54146941
H -0.14091496 -3.22542146 2.20060524
H -2.14678907 -3.06627458 1.99991642
H -4.57803669 -2.79174784 1.82647882
H -6.45667172 -1.08159973 3.50677523
H -6.35146698 0.27180531 2.33805652
H -6.42723362 -1.41902325 1.74757126
H -4.41634963 1.10217384 3.32485694
H -1.97694295 1.01173691 3.57284788
H 0.02801045 0.84524954 3.79290740
H 2.44547918 0.53209289 4.06435251
