56
cfg4 ip=3.2 off=3.2 anti E=-31287.5188 fmax=0.048
C        4.96333886      -0.01923310       0.16750516      -0.00863756       0.00615762       0.00307029
N        3.49870012      -0.01357225       0.07598942      -0.00642154      -0.00653797       0.00995701
C        2.81411977      -1.11664504      -0.31330410      -0.00220959      -0.00323269      -0.00017008
C        1.45558533      -1.14070935      -0.36181377      -0.02623061      -0.00830120       0.03272461
C        0.67751522      -0.00200758       0.00385943      -0.02634324       0.00682103       0.01139361
C       -0.74457507       0.01351772      -0.05396740      -0.00345054      -0.00210687      -0.02214912
C       -1.51004938      -1.09829220      -0.51664955      -0.00049731      -0.00404940       0.03541218
C       -2.85936135      -1.03349143      -0.62563608       0.00562672      -0.00875960      -0.01846618
N       -3.55249345       0.09082741      -0.29268668       0.00440403       0.00762461       0.00941002
C       -4.99579498       0.13966491      -0.51156991       0.00771549      -0.00073300       0.00766658
C       -2.87021658       1.17248837       0.16500111       0.00645751       0.00698872      -0.01117666
C       -1.51783663       1.15930409       0.29550717      -0.00600969      -0.00618320       0.02852291
C        1.44677623       1.14100929       0.37999318      -0.01245640      -0.03169759       0.02516772
C        2.80421784       1.10739297       0.40035175      -0.02144545       0.00701915      -0.00899763
H        5.34242410      -0.94428645      -0.25593422       0.00956436       0.00921606      -0.01766516
H        5.37069861       0.82243635      -0.38774272       0.00520463       0.00308531      -0.02183883
H        5.26832372       0.04943098       1.21006949       0.02778184       0.00323513       0.01199185
H        3.41102373      -1.97371806      -0.58963393       0.00210798      -0.00715283       0.00730645
H        0.99854948      -2.05867125      -0.69862309      -0.01231581       0.02222192       0.00771925
H       -1.04028191      -2.02008392      -0.82355033      -0.00056648      -0.00224773      -0.00340073
H       -3.44793581      -1.85945021      -0.99955896      -0.02143202       0.00315805      -0.02229592
H       -5.48969347      -0.61766427       0.09669842       0.00252078      -0.01732215      -0.00282684
H       -5.36520959       1.12239352      -0.23422676      -0.01006955       0.01034530       0.01303136
H       -5.22021758      -0.03531408      -1.56309824      -0.00249954      -0.00096923       0.00167989
H       -3.46152724       2.04164426       0.41249080      -0.02102869       0.01428047      -0.01649952
H       -1.05709912       2.06581862       0.65872829      -0.00219701      -0.01105317      -0.00666266
H        0.97884653       2.08023902       0.63152483      -0.00255676      -0.00507084      -0.00435114
H        3.39560839       1.97417265       0.66012447       0.01455473      -0.00148747       0.01187896
C       -8.31712740      -1.03369023       2.63944274       0.00836046      -0.00624058       0.00241584
N       -6.85113491      -1.02890807       2.70713663       0.00492752      -0.00287842      -0.00063107
C       -6.16638242       0.07312467       3.09805699       0.01941656       0.00805186      -0.00870779
C       -4.80764873       0.09669631       3.14158397       0.01158105       0.00005867      -0.04627458
C       -4.02991691      -1.04424979       2.78378039       0.01119532       0.00481707      -0.00106825
C       -2.60881658      -1.05990562       2.83908834       0.01381769      -0.00805003       0.01648306
C       -1.84110441       0.05767424       3.28516984       0.01571656      -0.00269716      -0.02922618
C       -0.48809159      -0.00200092       3.37643531      -0.02383207      -0.00441190       0.01619068
N        0.20280568      -1.12495014       3.03783604       0.00249822       0.00394591      -0.00700896
C        1.64586382      -1.18086080       3.25436864      -0.00681873      -0.00144467      -0.00467211
C       -0.48523320      -2.21866348       2.61262611      -0.01618518      -0.00583631       0.00536611
C       -1.83681323      -2.21144832       2.50290753       0.01581038       0.01448667      -0.03120183
C       -4.80045363      -2.19086670       2.41716036       0.01044198       0.02510310      -0.01160502
C       -6.15777684      -2.15373757       2.39197800       0.02979540      -0.00006423       0.02006551
H       -8.68372278      -0.03151359       2.83918255      -0.01619513      -0.00579151       0.01551360
H       -8.63309475      -1.33584619       1.64333706      -0.03080609      -0.00388395      -0.00700353
H       -8.72456453      -1.72222163       3.37674967      -0.00511795      -0.00186998       0.02359296
H       -6.76185684       0.92721896       3.38639671      -0.00914217       0.01025981      -0.01685097
H       -4.34879624       1.01356201       3.47808365       0.00976847      -0.00982914       0.00130614
H       -2.30854169       0.98210580       3.58941443      -0.00368520      -0.00207130      -0.00852064
H        0.10311291       0.83224336       3.72624061       0.02222129      -0.00012845       0.01897065
H        1.87028792      -1.22076609       4.32014545       0.00413995      -0.00052966       0.00275578
H        2.04265014      -2.07101643       2.77470613       0.01040074      -0.00317117      -0.00794833
H        2.11310684      -0.29879370       2.81852127       0.00165237       0.00657313       0.00621822
H        0.10531206      -3.09141914       2.37526637       0.02432476      -0.01773410       0.02485619
H       -2.30083891      -3.12456306       2.16389267      -0.00137364      -0.00577430      -0.00396420
H       -4.33475953      -3.13124621       2.16618932       0.00736323       0.01345054       0.00105975
H       -6.75064113      -3.01906853       2.13021162      -0.00984521       0.01241184      -0.03054303
