19
bm_n_methylphthalimide conf 0 ff=MMFF E=-5.379
C      3.17632198     0.22394661     0.06302514
N      1.73761445     0.13431883     0.06328413
C      1.04095053    -0.97460339     0.45812142
O      1.45661040    -2.03550057     0.88284864
C     -0.37451546    -0.66410701     0.26369572
C     -1.50059553    -1.42393504     0.51293976
C     -2.73910095    -0.84665593     0.21435024
C     -2.82038818     0.45663095    -0.31991376
C     -1.66457960     1.20523889    -0.56485268
C     -0.45422321     0.61385590    -0.26018688
C      0.91031275     1.11992601    -0.40050063
O      1.19175808     2.21090712    -0.85790455
H      3.54221452    -0.14750545    -0.89878641
H      3.59296172    -0.39293290     0.86386958
H      3.48958916     1.26442460     0.18447231
H     -1.42286134    -2.42587500     0.92245581
H     -3.65360564    -1.40925330     0.39497173
H     -3.79658615     0.88316840    -0.54477415
H     -1.71187752     2.20795127    -0.97711541
