15
SMD(acetonitrile)-opt r2scan/def2-svp q=0 m=2
C 2.10086791 0.07474157 0.02435135
N 0.66038945 0.01083522 0.13305831
C -0.09390350 1.18809919 0.15638978
C -1.46227506 1.15683285 0.06306851
C -2.16315495 -0.07361317 -0.09016295
C -1.37221922 -1.25589359 -0.16256542
C -0.00464555 -1.20290452 -0.06727848
H 2.47918885 0.93235930 0.59932212
H 2.43418336 0.18474544 -1.02611476
H 2.54561771 -0.84355716 0.43446210
H 0.47915446 2.11087101 0.27154929
H -2.00198429 2.10785192 0.10927653
H -3.25121904 -0.10666134 -0.17056990
H -1.83998879 -2.23622716 -0.29673910
H 0.63583524 -2.08607861 -0.12148520
