13
SMD(acetonitrile)-opt r2scan/def2-svp q=0 m=1
C 0.14104725 -1.22416660 0.00000719
C 1.53538536 -1.21445659 -0.00003444
C 2.23202652 -0.00014970 -0.00005548
C 1.53557429 1.21426553 -0.00003537
C 0.14123774 1.22419200 0.00000624
C -0.55821589 0.00006737 0.00002779
C -1.98786917 0.00018002 0.00007108
N -3.15421206 0.00026982 0.00010542
H -0.41254243 2.16637423 0.00002240
H 2.08244737 2.16129033 -0.00005190
H 3.32602618 -0.00023433 -0.00008750
H 2.08211133 -2.16156632 -0.00005024
H -0.41287959 -2.16626258 0.00002406
