44
SMD(acetonitrile)-opt r2scan/def2-svpd q=-2 m=1
C -6.12864155 -2.64872814 -0.06433563
C -5.35024754 -1.36704480 -0.17453280
C -4.03595619 -1.35182707 -0.67022027
C -3.32368527 -0.15596103 -0.79979573
C -3.90237263 1.06528041 -0.42747679
C -3.15601157 2.37192629 -0.59925545
C -5.21061947 1.05685465 0.07770605
C -5.92374440 -0.13844470 0.19700121
O -1.75164475 2.22632703 -0.62011941
C -1.20369276 1.96229379 0.68000625
C 0.26808415 1.71947380 0.56237809
C 1.15167734 2.80027641 0.24246873
C 2.50670385 2.57093879 0.11204887
C 3.08599042 1.28115439 0.28911759
C 4.51294445 1.11275364 0.14280396
O 5.30535928 2.08964064 -0.14930268
C 4.98928000 -0.23867827 0.34929315
C 6.38054108 -0.51699753 0.22864243
C 6.90276361 -1.78409901 0.41359125
C 6.03112581 -2.86430392 0.73769572
C 4.67328004 -2.63336508 0.86257617
C 4.09838783 -1.34368420 0.67950530
C 2.66820296 -1.17374966 0.82575797
O 1.87946714 -2.15268716 1.11789454
C 2.19353828 0.17618657 0.61958838
C 0.80371825 0.45440903 0.74013358
H -6.77037621 -2.79756871 -0.94892731
H -5.46143772 -3.51891964 0.00587904
H -6.78939857 -2.64302529 0.81459757
H -3.56180505 -2.29512487 -0.95746640
H -2.29877790 -0.16592243 -1.17992542
H -3.42922226 2.82814637 -1.56525081
H -3.46391986 3.08260572 0.19225802
H -5.67416324 1.99937934 0.38529269
H -6.94218788 -0.12279447 0.59688371
H -1.41907690 2.83703993 1.32647616
H -1.69991130 1.08364469 1.12855362
H 0.74203893 3.80584579 0.10327907
H 3.19048009 3.39003200 -0.12882195
H 7.03141625 0.32611581 -0.02075743
H 7.97843736 -1.95900940 0.31236398
H 6.43653094 -3.87010269 0.88594342
H 3.98724446 -3.44868377 1.10984019
H 0.14826222 -0.38724548 0.98486512
