13
SMD(acetonitrile)-opt r2scan/def2-svpd q=-1 m=2
C 2.27885856 0.57056266 0.19470274
F 2.75808952 0.80794177 -1.07084449
F 3.33270704 0.74426973 1.01779223
F 1.94777253 -0.73502892 0.22300248
C 1.15317249 1.50297231 0.56074804
O 1.35672482 2.66259183 0.92940628
O -0.03021656 0.90925018 0.24396790
C -1.25952629 1.49697556 0.20979793
O -1.55067466 2.68208040 0.39073400
C -2.29129501 0.40087669 0.13157345
F -3.46523168 0.87675495 -0.31515925
F -1.93544216 -0.63027625 -0.66591878
F -2.55133595 -0.16004591 1.35854437
