24
SMD(acetonitrile)-opt r2scan/def2-svpd q=-2 m=1
O -0.12523810 2.67225582 0.82661722
C -0.06744225 1.43948895 0.44571586
C 1.18437566 0.75963787 0.19616704
C 2.41185084 1.46018990 0.37371855
C 3.64250675 0.87011196 0.15219170
C 3.70614622 -0.49007672 -0.27155965
C 2.53583476 -1.20335914 -0.45428460
C 1.24943310 -0.63218901 -0.23584405
C 0.06737282 -1.43876478 -0.44550150
O 0.12346858 -2.67165925 -0.82634111
C -1.18420143 -0.75863336 -0.19590364
C -2.41125350 -1.45974803 -0.37394950
C -3.64231954 -0.87051266 -0.15235589
C -3.70638780 0.48971709 0.27121864
C -2.53631049 1.20335379 0.45444874
C -1.24950708 0.63303413 0.23604711
H 2.34131548 2.50250644 0.69838712
H 4.56406121 1.44186047 0.29990783
H 4.67637290 -0.96417329 -0.45016316
H 2.56251370 -2.24781118 -0.77886197
H -2.34009628 -2.50194276 -0.69891034
H -4.56360320 -1.44267625 -0.30024081
H -4.67682208 0.96345782 0.44969231
H -2.56350433 2.24768517 0.77930142
