56
cfg10 ip=3.5 off=3.2 anti E=-31287.4767 fmax=0.050
C        4.98236582      -0.04151217       0.20717835      -0.01779863       0.00414787      -0.01002646
N        3.51537396      -0.04322352       0.13613048       0.02157892       0.00030535       0.00222160
C        2.83318786      -1.13453293      -0.28996978       0.00860150       0.00903149      -0.00425432
C        1.47434056      -1.15732894      -0.33894230       0.00929186      -0.00500658       0.01715742
C        0.69712733      -0.03333867       0.06479255      -0.01261025       0.00140612      -0.01185901
C       -0.72514629      -0.02211624       0.01152956      -0.01305132       0.00735511      -0.00847548
C       -1.48552839      -1.13335587      -0.45759985      -0.02151932      -0.01323971       0.02020968
C       -2.83758061      -1.08191322      -0.53736158      -0.02019991      -0.00050821       0.01107116
N       -3.53356650       0.02725826      -0.16208545      -0.02661311       0.00170332      -0.00284585
C       -4.99008784       0.03711676      -0.27498638       0.01340409       0.00636802      -0.01287876
C       -2.85113625       1.12556150       0.25349932      -0.01954864      -0.00380270       0.00280207
C       -1.49597448       1.12700146       0.34924405      -0.03091066      -0.00250213       0.01784278
C        1.46298580       1.10197921       0.46434044       0.00068003      -0.00175197       0.02045261
C        2.82048861       1.07045880       0.48453508       0.00991587      -0.00202553      -0.00886007
H        5.35718946      -0.96356203      -0.22760949       0.01678004       0.02442599      -0.00241350
H        5.37505474       0.80467556      -0.35320683       0.00824909      -0.01513220      -0.00735205
H        5.30743565       0.02498909       1.24487787      -0.01103594      -0.00135081      -0.02043218
H        3.43385099      -1.97692314      -0.60124017      -0.01419128      -0.01709166       0.01734540
H        1.01283223      -2.05361244      -0.72109804       0.01466258      -0.03707588       0.03008523
H       -1.00792756      -2.03765029      -0.80087719      -0.02167162      -0.02595162       0.01977465
H       -3.43084641      -1.89832379      -0.92489290       0.01631480      -0.03354453       0.02222709
H       -5.42492433      -0.66197634       0.43983742       0.02026636       0.00594922      -0.02359495
H       -5.35619431       1.03869018      -0.06633294      -0.01222765      -0.01069189      -0.02456561
H       -5.28391507      -0.24822171      -1.28422528      -0.01608761       0.02998989      -0.00078451
H       -3.44912809       1.99586799       0.48027536       0.01297011       0.01687670       0.04233423
H       -1.02824592       2.04955695       0.65608174      -0.02285492       0.00540367       0.04331746
H        0.98984056       2.03305790       0.73280156       0.01661000       0.01675666       0.02908905
H        3.41514488       1.92997119       0.76156417      -0.01497466       0.00254765       0.01814209
C       -8.35000154      -1.11318378       2.87806065       0.01788460      -0.00447214       0.01058296
N       -6.88189316      -1.09804610       2.91479805      -0.01834824      -0.00243252       0.00799883
C       -6.19954440      -0.00756818       3.34494289      -0.01738210      -0.00434911      -0.01127051
C       -4.84136337       0.01646942       3.38895986       0.00015148       0.01470154      -0.02703639
C       -4.06244659      -1.11008058       2.99360837       0.01312947      -0.00753058       0.00722001
C       -2.64186999      -1.12283598       3.04423734       0.01195198      -0.00122059       0.00872827
C       -1.88085836      -0.01021180       3.51122582       0.03769008       0.00811987      -0.01666968
C       -0.52695234      -0.05861805       3.58290722       0.00368701      -0.00912336      -0.01141933
N        0.16902297      -1.16615559       3.20393136       0.02498291       0.00717021       0.00669206
C        1.62234576      -1.18908730       3.34876270      -0.01368174      -0.00939963       0.00827569
C       -0.51583439      -2.26981093       2.80006000       0.03491593      -0.00351258      -0.01172077
C       -1.86864047      -2.27237752       2.70651651       0.01195780      -0.00126079      -0.02335578
C       -4.82911780      -2.24785099       2.59753983       0.00215412      -0.00123524      -0.00012751
C       -6.18617970      -2.21250250       2.56828072      -0.01208748      -0.00366080       0.02265703
H       -8.71803675      -0.11479532       3.09638321      -0.01383374      -0.02297223      -0.00093486
H       -8.69069547      -1.41030158       1.88756387       0.00546059       0.00752563       0.02026970
H       -8.73423209      -1.81009004       3.62113069      -0.00508569       0.01065273       0.00362302
H       -6.80083983       0.83163641       3.66405775       0.01862528       0.01516510      -0.01383935
H       -4.37969085       0.91609487       3.76372111      -0.01868132       0.02723322      -0.01405842
H       -2.35864824       0.89366225       3.85603875       0.02128718       0.03263360      -0.02586220
H        0.06623026       0.76273805       3.95910420      -0.01031494       0.03953113      -0.02472953
H        1.89772520      -1.13926825       4.40209554       0.02056021      -0.01857769      -0.00540563
H        2.00681579      -2.11077854       2.92006250       0.00592308       0.01018942       0.02140649
H        2.05695012      -0.34050536       2.82022190      -0.01790464      -0.00968247       0.01831124
H        0.08318164      -3.14252230       2.58308160      -0.02088226      -0.01213280      -0.04014473
H       -2.33614523      -3.19433524       2.39805909       0.02488796      -0.00727116      -0.02769497
H       -4.35595742      -3.17859299       2.32880776      -0.01629424      -0.01646766      -0.04008292
H       -6.78063724      -3.06748216       2.27706175       0.01521738      -0.00021334      -0.01714269
