56
cfg11 ip=3.5 off=3.2 par E=-31287.4767 fmax=0.050
C        4.98240305      -0.04151961       0.20718524      -0.01760465       0.00416385      -0.00999775
N        3.51541350      -0.04323903       0.13611646       0.02159524       0.00045577       0.00227783
C        2.83324129      -1.13455594      -0.28997334       0.00719049       0.00918831      -0.00420532
C        1.47436865      -1.15733169      -0.33899893       0.01028054      -0.00417881       0.01751201
C        0.69714987      -0.03329193       0.06463556      -0.01237900       0.00050969      -0.01194469
C       -0.72512488      -0.02204423       0.01127678      -0.01350442       0.00802496      -0.00800004
C       -1.48553507      -1.13328076      -0.45781792      -0.02101084      -0.01368179       0.02010866
C       -2.83759137      -1.08187524      -0.53749538      -0.02051349      -0.00031828       0.01114403
N       -3.53358554       0.02728713      -0.16217773      -0.02647211       0.00148925      -0.00274439
C       -4.99012117       0.03705877      -0.27485401       0.01319266       0.00633435      -0.01282954
C       -2.85115420       1.12559949       0.25338598      -0.01882449      -0.00385877       0.00291192
C       -1.49597318       1.12706483       0.34905674      -0.03132166      -0.00326729       0.01759774
C        1.46302030       1.10195422       0.46435013       0.00055933      -0.00124596       0.02067537
C        2.82052852       1.07042692       0.48459182       0.00978283      -0.00237605      -0.00885531
H        5.35725258      -0.96355820      -0.22759850       0.01672901       0.02433489      -0.00246682
H        5.37510405       0.80467279      -0.35318107       0.00819073      -0.01507278      -0.00744201
H        5.30746776       0.02498273       1.24488474      -0.01110565      -0.00137250      -0.02033173
H        3.43390180      -1.97696670      -0.60117533      -0.01412601      -0.01718966       0.01728534
H        1.01285970      -2.05363434      -0.72107315       0.01451588      -0.03739501       0.02978246
H       -1.00793086      -2.03760777      -0.80103369      -0.02184077      -0.02570033       0.01966905
H       -3.43088616      -1.89833059      -0.92489846       0.01650242      -0.03342494       0.02209502
H       -5.42483038      -0.66201206       0.44007288       0.02038110       0.00584150      -0.02340253
H       -5.35626935       1.03861597      -0.06620360      -0.01212063      -0.01056848      -0.02451445
H       -5.28411108      -0.24834463      -1.28402620      -0.01597701       0.02993814      -0.00084129
H       -3.44915810       1.99586163       0.48029475       0.01300559       0.01694146       0.04222420
H       -1.02825048       2.04958324       0.65598432      -0.02274507       0.00575904       0.04321738
H        0.98986400       2.03299342       0.73295772       0.01678151       0.01660970       0.02889479
H        3.41519818       1.92988990       0.76175219      -0.01512334       0.00255168       0.01807555
C        1.62224891      -1.18994762       3.34979828      -0.01351248      -0.00927053       0.00824201
N        0.16904004      -1.16649730       3.20396088       0.02473167       0.00654497       0.00781741
C       -0.51601872      -2.26976176       2.79941129       0.03513330      -0.00319106      -0.01268560
C       -1.86878924      -2.27192061       2.70539598       0.01227408      -0.00152380      -0.02252263
C       -2.64186725      -1.12255066       3.04397703       0.01168774      -0.00051100       0.00752015
C       -4.06250312      -1.11013141       2.99428743       0.01286286      -0.00726172       0.00805833
C       -4.82894945      -2.24813110       2.59852197      -0.00085007      -0.00055375      -0.00240056
C       -6.18604688      -2.21286377       2.56877028      -0.00984748      -0.00101823       0.02293421
N       -6.88194289      -1.09833515       2.91476766      -0.01800999      -0.00509052       0.00553234
C       -8.35002565      -1.11319853       2.87660697       0.01771530      -0.00346250       0.01101146
C       -6.19982322      -0.00799005       3.34555726      -0.02079533      -0.00213512      -0.00949745
C       -4.84170413       0.01604393       3.39029829       0.00418010       0.01521773      -0.02770752
C       -1.88057688      -0.00987482       3.51042868       0.03667897       0.00743842      -0.01453849
C       -0.52668726      -0.05860730       3.58239547       0.00341175      -0.00939084      -0.01103246
H        2.00620182      -2.11391785       2.92560030       0.00641911       0.01039893       0.02106964
H        2.05807496      -0.34404781       2.81794305      -0.01817297      -0.00970940       0.01769136
H        1.89682272      -1.13570218       4.40311431       0.02057879      -0.01893668      -0.00544344
H        0.08269348      -3.14261972       2.58223560      -0.02001276      -0.01194099      -0.04022353
H       -2.33638370      -3.19350467       2.39595498       0.02520858      -0.00736995      -0.02654618
H       -4.35567150      -3.17880275       2.32975692      -0.01645743      -0.01640893      -0.03934245
H       -6.78026556      -3.06780737       2.27717337       0.01385573      -0.00178388      -0.01715015
H       -8.73541895      -1.80668562       3.62226225      -0.00488689       0.01006962       0.00380992
H       -8.71804353      -0.11371914       3.08999192      -0.01324839      -0.02316343      -0.00055707
H       -8.68963190      -1.41447869       1.88701772       0.00532748       0.00709864       0.02016572
H       -6.80147950       0.83111577       3.66447357       0.02077959       0.01382544      -0.01377465
H       -4.38017733       0.91542567       3.76588686      -0.01879928       0.02719980      -0.01497179
H       -2.35821266       0.89413035       3.85509092       0.02090432       0.03327113      -0.02604626
H        0.06670932       0.76257156       3.95871780      -0.01119423       0.03916600      -0.02530771
