45
conf 5 ff=MMFF E=74.896 Rg=4.46 smiles=CCc1c(OC)cc2c(c1OCc1ccc(C)cc1)C(=O)C(Cl)=CC2=O
C      6.73023070    -0.27987740    -0.40273510
C      5.27103852    -0.11856184    -0.09675433
C      4.56359802     0.98669993    -0.58170506
C      3.21194687     1.15278285    -0.27262518
C      2.54612285     0.22398564     0.53798311
C      1.08672579     0.41635815     0.86437936
C      3.25766453    -0.87722580     1.03003909
C      4.61036230    -1.04272736     0.72056730
C     -0.86557833    -2.81083353    -1.47602952
C     -0.87351077    -2.30366855    -0.04112617
C     -1.65938251    -1.01080777     0.09176576
C     -3.04770554    -1.05198476     0.32304314
O     -3.59619262    -2.29682930     0.48214209
C     -5.00542128    -2.38773540     0.65528194
C     -3.77189947     0.13809449     0.36960273
C     -3.13560223     1.37154030     0.15643254
C     -1.76160673     1.44153869    -0.08279640
C     -1.02343455     0.24241356    -0.07977980
O      0.32489620     0.23398570    -0.33899709
C     -1.13506026     2.76728661    -0.35424917
O      0.06282552     2.88988863    -0.57643868
C     -2.02460825     3.96041422    -0.33785448
Cl    -1.30703923     5.50054512    -0.64910371
C     -3.33043759     3.87842351    -0.08861841
C     -3.97063300     2.58788538     0.18132032
O     -5.17059773     2.54065230     0.41927987
H      7.33053668     0.22466820     0.36053882
H      6.97339851     0.14465989    -1.38246778
H      7.00902503    -1.33853783    -0.42995115
H      5.05707588     1.72560038    -1.20877247
H      2.67188668     2.01101183    -0.67101897
H      0.94060476     1.42103790     1.27874057
H      0.77601390    -0.30435210     1.63193324
H      2.76553599    -1.61605761     1.65777539
H      5.14516579    -1.90170195     1.11928409
H     -1.88099958    -3.00914694    -1.83504013
H     -0.29469528    -3.74228383    -1.54415372
H     -0.40641147    -2.08202462    -2.15241067
H     -1.28932131    -3.07148780     0.62211653
H      0.15729643    -2.17116281     0.30236066
H     -5.26364048    -3.44791851     0.73704108
H     -5.53705858    -1.98148598    -0.21144216
H     -5.32025385    -1.89617006     1.58150565
H     -4.84373228     0.13484926     0.55156523
H     -3.97712802     4.74825923    -0.07311879
