45
conf 3 ff=MMFF E=74.896 Rg=4.46 smiles=CCc1c(OC)cc2c(c1OCc1ccc(C)cc1)C(=O)C(Cl)=CC2=O
C      5.89512049    -0.18871342    -3.35533297
C      4.48969326    -0.21451509    -2.83284203
C      4.00862589    -1.33639827    -2.14931619
C      2.69096815    -1.37285556    -1.68831295
C      1.82611428    -0.29387135    -1.91390463
C      0.40558192    -0.34721920    -1.41128829
C      2.30631332     0.82485273    -2.60596294
C      3.62497761     0.86061372    -3.06726581
C      0.43906160     2.59839484     1.90917212
C     -0.39593401     2.31605608     0.66848981
C     -1.29525619     1.10746872     0.86156861
C     -2.57494851     1.26593173     1.42716791
O     -2.95413327     2.55096837     1.71122454
C     -4.21395060     2.75093506     2.34133582
C     -3.36323924     0.14198443     1.66852853
C     -2.88033719    -1.14523871     1.38293017
C     -1.61223342    -1.33248849     0.82899418
C     -0.83734365    -0.19293497     0.53956084
O      0.43024637    -0.30430849     0.02374039
C     -1.11877148    -2.71903515     0.58849726
O     -0.01411657    -2.94510383     0.11104517
C     -2.02990847    -3.84070343     0.94459824
Cl    -1.46744492    -5.45022947     0.66738843
C     -3.24465911    -3.64416910     1.45429268
C     -3.75339817    -2.29177797     1.70011234
O     -4.87811737    -2.13755796     2.15836566
H      5.92619219    -0.60681339    -4.36614862
H      6.56247506    -0.77040071    -2.71072735
H      6.28276658     0.83508636    -3.38348845
H      4.65688680    -2.18991930    -1.96501856
H      2.33676054    -2.24785417    -1.14438695
H     -0.06931593    -1.26695677    -1.77320266
H     -0.16660059     0.49873951    -1.81386140
H      1.65882119     1.67833141    -2.79155270
H      3.97470874     1.73671097    -3.60853122
H      1.07627765     3.47302568     1.74447682
H      1.08607475     1.74938534     2.15420988
H     -0.19443006     2.80017099     2.77938625
H     -0.99453171     3.19897272     0.41457324
H      0.26736833     2.17595274    -0.19087335
H     -5.03388132     2.42510618     1.69311011
H     -4.33347694     3.82474960     2.51450038
H     -4.25295896     2.25043263     3.31440484
H     -4.35678122     0.23667481     2.09963786
H     -3.90926584    -4.46147982     1.70995866
