45
conf 2 ff=MMFF E=74.874 Rg=4.46 smiles=CCc1c(OC)cc2c(c1OCc1ccc(C)cc1)C(=O)C(Cl)=CC2=O
C      6.67842672     0.57039188    -0.71674837
C      5.25197670     0.46254599    -0.26673071
C      4.64578769    -0.79074987    -0.12864929
C      3.30763165    -0.89084613     0.25789017
C      2.54899890     0.26048215     0.50661381
C      1.10485267     0.13770988     0.92193555
C      3.15086167     1.51482476     0.34714872
C      4.49009751     1.61427154    -0.03945269
C     -1.06536340     1.65124168    -2.64203108
C     -1.05664983     1.90787513    -1.14193999
C     -1.73584332     0.78494031    -0.37748252
C     -3.12657554     0.82236808    -0.16046937
O     -3.77799172     1.93893051    -0.61294947
C     -5.19257670     1.98997933    -0.46970431
C     -3.75134765    -0.24820635     0.47703363
C     -3.01246597    -1.37417260     0.87446406
C     -1.63349330    -1.44168939     0.66492075
C     -0.99634750    -0.33800078     0.06591754
O      0.35091072    -0.34900892    -0.19882997
C     -0.89585183    -2.67713694     1.05665473
O      0.31169376    -2.79616502     0.89237530
C     -1.68475576    -3.77833464     1.67318947
Cl    -0.83816403    -5.21245694     2.13185609
C     -2.99694570    -3.69006046     1.88386818
C     -3.74524942    -2.48701159     1.50851458
O     -4.94889514    -2.42596322     1.72364965
H      7.26318981    -0.28846051    -0.37082810
H      6.72401987     0.61281897    -1.80929012
H      7.15018144     1.46987473    -0.30734684
H      5.20887718    -1.70032304    -0.32441332
H      2.84947948    -1.87443808     0.35560439
H      1.03304159    -0.54594834     1.77628781
H      0.72506956     1.11405960     1.25006836
H      2.58105012     2.42523485     0.51621922
H      4.93502914     2.59873864    -0.16469596
H     -2.08722927     1.56752405    -3.02684286
H     -0.53614104     0.72491062    -2.88965865
H     -0.57182933     2.47411587    -3.16876722
H     -0.02462641     2.04245737    -0.80301272
H     -1.54556806     2.86527305    -0.92588670
H     -5.53825939     2.93157695    -0.90702343
H     -5.67478546     1.17249974    -1.01567910
H     -5.48113864     1.98783510     0.58640982
H     -4.82276396    -0.24251654     0.66137566
H     -3.57031783    -4.49099142     2.33643531
