45
conf 9 ff=MMFF E=75.207 Rg=4.45 smiles=CCc1c(OC)cc2c(c1OCc1ccc(C)cc1)C(=O)C(Cl)=CC2=O
C      6.66276420    -0.21192121     0.88989369
C      5.21981696    -0.33979078     0.50188398
C      4.36306031    -1.18082193     1.22124819
C      3.01078417    -1.27492196     0.88195480
C      2.49187430    -0.52449360    -0.18029079
C      1.03468972    -0.61141053    -0.55513786
C      3.34603621     0.33434124    -0.88437022
C      4.69718300     0.42799703    -0.54449530
C     -0.94094474    -1.49331204     2.62621474
C     -1.00526370    -0.02434692     2.22852324
C     -1.70729116     0.20562447     0.90051193
C     -3.11244085     0.13467439     0.82866447
O     -3.76062298    -0.17985291     1.99362035
C     -5.18205943    -0.23548215     1.97322683
C     -3.75369459     0.39185046    -0.38194684
C     -3.01477817     0.74947124    -1.52076950
C     -1.62159851     0.83356330    -1.47807613
C     -0.97165297     0.51980562    -0.26820897
O      0.39314655     0.60563389    -0.15047243
C     -0.88088511     1.27747761    -2.69445679
O      0.33742168     1.40010273    -2.70888983
C     -1.68157796     1.56819686    -3.91494161
Cl    -0.82988545     2.06016794    -5.33496402
C     -3.00860667     1.45873054    -3.94551071
C     -3.76188087     1.04374931    -2.75878449
O     -4.98109488     0.94739944    -2.81374957
H      7.28218313     0.02450400     0.01831021
H      7.03890448    -1.15071428     1.30990861
H      6.78130464     0.58148726     1.63419059
H      4.74365749    -1.76730503     2.05432011
H      2.36601316    -1.93396874     1.45809603
H      0.57412000    -1.47853646    -0.06801105
H      0.94983097    -0.76491557    -1.63728820
H      2.95294362     0.94405040    -1.69724315
H      5.33654338     1.10902963    -1.10139353
H     -0.40444983    -1.60132840     3.57440917
H     -0.41962195    -2.09213936     1.87437006
H     -1.93866271    -1.92344066     2.75744172
H     -1.52143685     0.54735888     3.01025326
H      0.01113399     0.38445718     2.20906075
H     -5.52032144    -0.48887732     2.98254243
H     -5.53567952    -1.02050545     1.29690726
H     -5.61132987     0.73747566     1.71270802
H     -4.83657481     0.34153529    -0.46412429
H     -3.59105696     1.66940093    -4.83513514
