45
conf 0 ff=MMFF E=74.874 Rg=4.46 smiles=CCc1c(OC)cc2c(c1OCc1ccc(C)cc1)C(=O)C(Cl)=CC2=O
C      6.49590448    -0.51718684    -1.72512678
C      5.15814772    -0.32760404    -1.07445679
C      4.47025903     0.88314064    -1.20933319
C      3.20959707     1.04888766    -0.63196625
C      2.61050287     0.00476281     0.08485683
C      1.24833173     0.19706821     0.70180929
C      3.29074635    -1.21379040     0.20081114
C      4.55239876    -1.37889959    -0.37700601
C     -1.32589096    -2.42962568    -1.78354199
C     -1.04907856    -2.20623004    -0.30378448
C     -1.69467963    -0.92717825     0.20010741
C     -3.02202631    -0.94676793     0.66957407
O     -3.63324280    -2.17203821     0.69990879
C     -4.99481757    -2.22839054     1.10870207
C     -3.63006327     0.24507567     1.06031685
C     -2.94276195     1.46539071     0.95958714
C     -1.62851153     1.51544274     0.49025373
C     -0.99900307     0.30458925     0.14320725
O      0.28027691     0.28262764    -0.35506683
C     -0.95340413     2.83790774     0.35162114
O      0.19509458     2.94460558    -0.05933909
C     -1.72889387     4.04622133     0.74368602
Cl    -0.95407325     5.58221840     0.58823876
C     -2.97545037     3.97928625     1.20805355
C     -3.66134104     2.69229159     1.35425328
O     -4.80304786     2.65662435     1.79471600
H      7.04795750     0.42770543    -1.76581292
H      7.10861683    -1.22652477    -1.15886674
H      6.36640761    -0.89570328    -2.74369638
H      4.90807340     1.70690889    -1.76829866
H      2.68527917     1.99642798    -0.75100941
H      1.25438249     1.10946042     1.31005794
H      1.01835946    -0.64208961     1.37120654
H      2.84205507    -2.04689864     0.73627493
H      5.05932274    -2.33631445    -0.28103822
H     -0.85141844    -3.35663298    -2.12070925
H     -0.93149682    -1.60735939    -2.39002076
H     -2.40014996    -2.50780172    -1.98141921
H     -1.40620557    -3.06631051     0.27505526
H      0.03234659    -2.19029043    -0.13549066
H     -5.63253091    -1.63980951     0.44103493
H     -5.31929325    -3.27144853     1.04471506
H     -5.10630838    -1.90847815     2.14979413
H     -4.65197224     0.25729962     1.43112737
H     -3.53839859     4.85943058     1.49701416
