45
conf 4 ff=MMFF E=74.896 Rg=4.46 smiles=CCc1c(OC)cc2c(c1OCc1ccc(C)cc1)C(=O)C(Cl)=CC2=O
C      6.70226267    -0.68605572    -0.39948660
C      5.25343052    -0.45160434    -0.09157801
C      4.52657664    -1.38402386     0.65733272
C      3.18424835    -1.15251681     0.96960770
C      2.54987801     0.02310210     0.54940508
C      1.10263098     0.28713022     0.87978203
C      3.28209669     0.95934309    -0.19246854
C      4.62333888     0.72730057    -0.50439938
C     -1.02913807    -2.64194606    -1.68525525
C     -1.01900794    -2.23311053    -0.21931617
C     -1.72153960    -0.90396434    -0.00352737
C     -3.11190417    -0.87063861     0.21647803
O     -3.74077736    -2.08523642     0.28760578
C     -5.15461014    -2.09615285     0.44610724
C     -3.75861485     0.35799391     0.33953054
C     -3.04230749     1.55919877     0.21417205
C     -1.66431017     1.55603189    -0.01189946
C     -1.00473126     0.31414989    -0.08602154
O      0.34281764     0.23590730    -0.33751691
C     -0.95121918     2.85369162    -0.18920011
O      0.25424651     2.91315633    -0.39571000
C     -1.76243431     4.09809645    -0.09698231
Cl    -0.94434483     5.60598695    -0.29891908
C     -3.07328177     4.08423602     0.13864431
C     -3.79771711     2.82261821     0.31673958
O     -5.00058058     2.83726806     0.54406912
H      6.91288471    -1.75631633    -0.49648549
H      6.98191039    -0.21347348    -1.34695729
H      7.32602439    -0.27361190     0.39946904
H      5.00107377    -2.30073713     0.99984812
H      2.63939442    -1.89855409     1.54291446
H      0.73857892    -0.46199952     1.59488638
H      1.01715111     1.26897412     1.36051429
H      2.80230025     1.87562832    -0.53474884
H      5.16953740     1.47327092    -1.07702891
H     -0.51730201    -1.90050826    -2.30797719
H     -2.05151299    -2.74947199    -2.06272642
H     -0.51858022    -3.60169953    -1.81313909
H      0.01465056    -2.19106253     0.13829482
H     -1.48995575    -3.01531083     0.38789606
H     -5.48119310    -3.14048287     0.45421581
H     -5.44655172    -1.64876529     1.40175121
H     -5.65028805    -1.59885196    -0.39405821
H     -4.83022463     0.41191250     0.51472249
H     -3.66290551     4.99109802     0.20941993
