45
conf 7 ff=MMFF E=74.896 Rg=4.46 smiles=CCc1c(OC)cc2c(c1OCc1ccc(C)cc1)C(=O)C(Cl)=CC2=O
C      6.72477860     0.45990460    -0.45678885
C      5.26445398     0.30946724    -0.15066770
C      4.61128672    -0.90378277    -0.39282695
C      3.25847775    -1.05370587    -0.08056571
C      2.53715948     0.00225415     0.49190069
C      1.07719760    -0.17396114     0.82483183
C      3.19437336     1.21329331     0.74195855
C      4.54825998     1.36260729     0.42946339
C     -0.92570493     2.37465694    -2.20800405
C     -0.95485494     2.19594235    -0.69689939
C     -1.69651661     0.93250178    -0.29640242
C     -3.09130108     0.96575195    -0.10640652
O     -3.68895249     2.19113169    -0.23696637
C     -5.10481704     2.25917552    -0.11504148
C     -3.77269652    -0.21395972     0.18837232
C     -3.08624371    -1.43648035     0.26536129
C     -1.70450466    -1.50016744     0.07369643
C     -1.01084718    -0.30014010    -0.17446313
O      0.34296355    -0.29285805    -0.40338952
C     -1.02281903    -2.82588586     0.11404761
O      0.18441756    -2.94443356    -0.05283563
C     -1.86842877    -4.02208416     0.37704779
Cl    -1.08688975    -5.56169531     0.42782577
C     -3.18278464    -3.94166575     0.57713148
C     -3.87679736    -2.65117444     0.54273263
O     -5.08382898    -2.60270938     0.74147176
H      7.32152560     0.16144105     0.41058387
H      6.96556450     1.49718134    -0.71234754
H      7.01041846    -0.15967277    -1.31339462
H      5.14844831    -1.74142823    -0.83158624
H      2.76116155    -2.00020965    -0.28971066
H      0.71932227     0.68454070     1.40793054
H      0.95618516    -1.06791295     1.44823822
H      2.65853942     2.05108001     1.18140044
H      5.04029555     2.30969447     0.63864888
H     -0.38742942     3.29117907    -2.46953085
H     -1.93735235     2.44665809    -2.62114029
H     -0.42179341     1.53457047    -2.69771293
H     -1.41653229     3.07294580    -0.22780017
H      0.07019784     2.18531766    -0.31315901
H     -5.42711690     1.97093331     0.89078631
H     -5.40363538     3.29965225    -0.27463672
H     -5.59706290     1.65028978    -0.88044525
H     -4.84857213    -0.21535824     0.34469752
H     -3.79754477    -4.81288508     0.77234793
