45
conf 6 ff=MMFF E=74.896 Rg=4.46 smiles=CCc1c(OC)cc2c(c1OCc1ccc(C)cc1)C(=O)C(Cl)=CC2=O
C      6.73774004     0.14122682     0.49126075
C      5.26894943     0.20988041     0.19659116
C      4.66047638    -0.75816044    -0.61041098
C      3.29768471    -0.67873095    -0.90948163
C      2.52304225     0.37895841    -0.41724146
C      1.05195278     0.47847645    -0.73247554
C      3.13630676     1.35189289     0.38299526
C      4.49808753     1.27181772     0.68168471
C     -0.67723002    -2.85102920     1.64001151
C     -0.72802100    -2.35311746     0.20274433
C     -1.59381685    -1.11234788     0.06996125
C     -2.97868777    -1.24100922    -0.14959521
O     -3.44992190    -2.51839263    -0.29798175
C     -4.85208094    -2.69766105    -0.45916296
C     -3.77585954    -0.09852277    -0.19602187
C     -3.21584361     1.17323604     0.00576167
C     -1.84699717     1.32981765     0.23321667
C     -1.03570928     0.17889998     0.23001261
O      0.31255740     0.25572519     0.47807593
C     -1.30198466     2.69341581     0.49286971
O     -0.11229246     2.89147311     0.70438389
C     -2.26415026     3.82881687     0.47806234
Cl    -1.64133228     5.41224086     0.77579946
C     -3.56430353     3.66444607     0.24011716
C     -4.12509932     2.33516234    -0.01817875
O     -5.32165906     2.21213059    -0.24594995
H      6.96185774     0.58556850     1.46674595
H      7.29942367     0.67776584    -0.27955577
H      7.08199723    -0.89790654     0.52159647
H      5.24442252    -1.58452727    -1.00910123
H      2.84742279    -1.45025253    -1.52926798
H      0.84033705     1.46984372    -1.15061198
H      0.78055532    -0.26434827    -1.49382927
H      2.54715442     2.17718141     0.78141843
H      4.94968268     2.04348025     1.30080147
H     -1.67549028    -3.11002885     2.00837247
H     -0.25885659    -2.09146612     2.30897662
H     -0.04907435    -3.74486557     1.70800783
H     -1.10048159    -3.14887245    -0.45329484
H      0.28981089    -2.15865512    -0.14983010
H     -5.40114257    -2.32056820     0.40987044
H     -5.20414188    -2.23163008    -1.38518578
H     -5.04448452    -3.77227237    -0.53360816
H     -4.84683309    -0.16938373    -0.36905347
H     -4.26396706     4.49229175     0.22575578
