45
conf 8 ff=MMFF E=74.896 Rg=4.46 smiles=CCc1c(OC)cc2c(c1OCc1ccc(C)cc1)C(=O)C(Cl)=CC2=O
C      6.70542489     0.60198018     0.45437167
C      5.25907830     0.35449754     0.14497955
C      4.57253375     1.18265872    -0.75022639
C      3.23280659     0.93536038    -1.06155878
C      2.56084116    -0.15366192    -0.49273235
C      1.11591808    -0.43367481    -0.82011097
C      3.25283114    -0.98675428     0.39618986
C      4.59149611    -0.73895393     0.70707206
C     -1.00579244     2.87846979     1.23737529
C     -0.97049078     2.26137745    -0.15337109
C     -1.69914358     0.92939933    -0.19390728
C     -3.08430969     0.89253809    -0.44406857
O     -3.68223649     2.09642849    -0.70659535
C     -5.09116941     2.11263144    -0.90358925
C     -3.75698357    -0.32769205    -0.40582353
C     -3.07262693    -1.51223333    -0.08924173
C     -1.70067487    -1.50408197     0.17089838
C     -1.01367168    -0.27809231     0.08270137
O      0.32904819    -0.19139134     0.35628352
C     -1.02304936    -2.77645010     0.55267806
O      0.17544845    -2.82961741     0.79784947
C     -1.86124269    -4.00450275     0.61930719
Cl    -1.08426949    -5.48338196     1.05864282
C     -3.16545198    -3.99854739     0.34905878
C     -3.85524670    -2.76172293    -0.02863955
O     -5.05240157    -2.78494445    -0.28369252
H      6.93870920     1.67068583     0.40256272
H      6.95177048     0.26512330     1.46683613
H      7.33782724     0.06661057    -0.26044824
H      5.07671523     2.03009826    -1.20900246
H      2.71958170     1.60099360    -1.75123191
H      0.78668292     0.21109552    -1.64532643
H      1.01852620    -1.47289731    -1.15620129
H      2.74338351    -1.83371723     0.85450707
H      5.10608708    -1.40466366     1.39607902
H     -0.47564910     3.83611891     1.23912700
H     -2.03401592     3.06018358     1.56758455
H     -0.52680744     2.22492704     1.97422289
H      0.07010357     2.14716092    -0.47309859
H     -1.40807652     2.95662204    -0.87965756
H     -5.37054811     1.53736310    -1.79221795
H     -5.61867452     1.75244741    -0.01426758
H     -5.39249558     3.15109588    -1.07135145
H     -4.82513429    -0.38484388    -0.60007573
H     -3.77465110    -4.89404236     0.39411834
