45
conf 1 ff=MMFF E=74.874 Rg=4.46 smiles=CCc1c(OC)cc2c(c1OCc1ccc(C)cc1)C(=O)C(Cl)=CC2=O
C      6.72422256    -0.13304915    -0.45555336
C      5.27848912    -0.01395445    -0.07531991
C      4.55719536     1.14348930    -0.38731624
C      3.20233886     1.24176755    -0.06358527
C      2.54205992     0.18184820     0.57166730
C      1.07862771     0.30101300     0.91414055
C      3.25991263    -0.98446812     0.86397783
C      4.61578670    -1.08205463     0.53996754
C     -0.81562504    -2.56514153    -1.89649455
C     -0.83817818    -2.27955994    -0.40178746
C     -1.64314503    -1.03202576    -0.08183376
C     -3.03178903    -1.12625875     0.13128755
O     -3.56302156    -2.38819523     0.09811790
C     -4.97150666    -2.52319995     0.24683606
C     -3.77326540     0.03342383     0.35089774
C     -3.15383288     1.29339884     0.32942568
C     -1.77987842     1.41714232     0.11269899
C     -1.02449620     0.24124488    -0.05921396
O      0.32498803     0.28996485    -0.30788299
C     -1.17134693     2.77704478     0.04745483
O      0.02570211     2.94794756    -0.14538834
C     -2.07817442     3.94199576     0.23633701
Cl    -1.38154644     5.52101923     0.16429546
C     -3.38383157     3.80579081     0.46156729
C     -4.00649511     2.48076965     0.53072424
O     -5.20674170     2.38204366     0.75080163
H      7.26001886    -0.78245831     0.24474249
H      6.81302879    -0.54981585    -1.46349343
H      7.21622694     0.84501504    -0.43196774
H      5.04272557     1.97757609    -0.88858721
H      2.65415356     2.14812482    -0.31837054
H      0.77678966    -0.53122769     1.56331920
H      0.91454747     1.22956652     1.47389641
H      2.76872572    -1.82932415     1.34050223
H      5.15188732    -2.00012876     0.76924102
H     -1.82625705    -2.72081883    -2.28852688
H     -0.23111994    -3.46804548    -2.09963650
H     -0.36348107    -1.73687902    -2.45240317
H     -1.24626517    -3.14388530     0.13555722
H      0.18881286    -2.18633193    -0.03483328
H     -5.50531426    -1.99881969    -0.55251460
H     -5.29723820    -2.18044413     1.23429025
H     -5.21478286    -3.58706612     0.16710984
H     -4.84578134    -0.01161325     0.52302846
H     -4.04312528     4.65457933     0.60282446
