28
pyridinium/ox q=1 m=1 E=-15192.325282eV model=uma-s-1p1
C       -4.35553334       0.14463475      -1.26593561      -0.00357074      -0.00060049       0.00333090
C       -3.00710472       0.23267816      -0.61052094      -0.01006514       0.00024808      -0.00728797
C       -2.50064154       1.45288407      -0.17611819      -0.00119053      -0.00279917      -0.00623147
C       -1.27674270       1.52768626       0.47316906      -0.00613445       0.00028547       0.01243109
C       -0.53714468       0.37604998       0.70417418      -0.00131552      -0.00672929      -0.00390322
C        0.77325309       0.44509279       1.43405094       0.00959974      -0.00583980      -0.01047138
C       -1.03056211      -0.84889607       0.26378175      -0.01223174      -0.00905205       0.01060886
C       -2.24722205      -0.91680205      -0.38879161      -0.00601702       0.00858633      -0.00209088
N        1.90607215      -0.00484125       0.56550298       0.00415563       0.00116132       0.00084012
C        2.19051151       0.70626607      -0.53862710      -0.00633848      -0.00319765      -0.00195791
C        3.20688012       0.32010323      -1.37902718      -0.00243925      -0.00008316       0.00125157
C        3.92931266      -0.82847611      -1.08113738      -0.00775423      -0.00545505      -0.01228025
C        3.61232325      -1.55730425       0.05434533       0.00466267       0.00506809      -0.00200513
C        2.59232791      -1.11617336       0.86763418      -0.00057254      -0.00192760      -0.00139295
H       -4.40030679      -0.68418381      -1.97112209       0.00155127       0.01538769      -0.00567648
H       -5.12781090      -0.02259888      -0.51248767      -0.00346620      -0.00253202      -0.00222869
H       -4.60451365       1.06514526      -1.79173142       0.01233668      -0.00977175      -0.00545253
H       -3.07267215       2.35729825      -0.34247457       0.00502399      -0.00369369       0.00300231
H       -0.91005067       2.48810470       0.81691820       0.00951364       0.01121049       0.00042191
H        0.99935608       1.46188274       1.75149453      -0.00097282      -0.00979885       0.00702229
H        0.79143436      -0.19913078       2.31141667       0.00109932       0.00552179      -0.00429935
H       -0.46783305      -1.75995007       0.43871994      -0.00160564      -0.01379280       0.00108874
H       -2.62413980      -1.87573583      -0.72350923       0.00579020       0.01017842       0.01001584
H        1.56937009       1.57282129      -0.71673686      -0.00221600      -0.00017973       0.00189533
H        3.42148179       0.91143418      -2.25687244       0.00058409      -0.00033859       0.00537239
H        4.72925535      -1.15383209      -1.73174387       0.00446109      -0.00061766      -0.00741952
H        4.14293489      -2.46092652       0.31509089       0.01266941       0.01035014       0.00812215
H        2.29776460      -1.63323042       1.76914262      -0.00555757       0.00841158       0.00729424
