41
SMD(acetonitrile)-opt r2scan/def2-svp q=2 m=1
C -6.15528018 -0.59775678 1.47185779
C -5.10346319 -0.53816153 0.40190933
C -4.52884571 0.69078830 0.02599944
C -3.57255513 0.75900787 -0.98710805
C -3.15971587 -0.40599592 -1.65380303
C -2.09899330 -0.33844375 -2.72157336
C -3.72388494 -1.63506752 -1.28548144
C -4.68501018 -1.69718873 -0.27225670
N -0.74832144 -0.15357762 -2.11869130
C -0.15306681 -1.20546481 -1.51337719
C 1.07733255 -1.06459325 -0.89968201
C 1.71408143 0.18956167 -0.89207563
C 3.02590096 0.37424258 -0.23749063
C 3.36734577 1.59755715 0.36412466
C 4.60197120 1.74521675 0.96958246
N 5.49213879 0.72809734 0.98431037
C 6.77952367 0.90367480 1.67169517
C 5.19455092 -0.45973039 0.41277686
C 3.97089893 -0.66482862 -0.19935226
C 1.06640706 1.26179603 -1.52699243
C -0.16067194 1.06136131 -2.13589660
H -7.14496486 -0.32986759 1.06183688
H -5.94326248 0.11403541 2.28458708
H -6.23967152 -1.60758883 1.89988519
H -4.84132893 1.60779857 0.53670279
H -3.14047336 1.72667353 -1.26448519
H -2.06124879 -1.26708523 -3.30598355
H -2.25340530 0.50898456 -3.40119458
H -3.41141658 -2.55015645 -1.79915965
H -5.11836480 -2.66472417 0.00178726
H -0.69850688 -2.15146522 -1.53550454
H 1.51699754 -1.93634675 -0.41168468
H 2.67426460 2.44037604 0.38780389
H 4.91362880 2.67056653 1.45761603
H 7.52232474 0.24386159 1.21063148
H 6.65143264 0.64185776 2.73180724
H 7.09068083 1.95022161 1.58101440
H 5.96685612 -1.22945765 0.46091309
H 3.78055337 -1.63288110 -0.66634854
H 1.51484912 2.25548371 -1.57954072
H -0.69934137 1.85785925 -2.65194747
