25
bm_1_hydroxy_9_10_anthraquinone conf 0 ff=MMFF E=54.683
O     -0.25130238     2.77900521     0.24955176
C     -0.17304278     1.56102421     0.14012858
C     -1.39671437     0.73889048     0.06441102
C     -2.65285838     1.35629115     0.11812563
C     -3.81389145     0.58457790     0.04704860
C     -3.72437503    -0.80160214    -0.07749091
C     -2.47364132    -1.41910963    -0.13123059
C     -1.30777824    -0.64605180    -0.06002246
C      0.01066624    -1.30445700    -0.11733058
O      0.09983907    -2.52429917    -0.22693189
C      1.23794549    -0.48842550    -0.04213542
C      2.50281744    -1.09005264    -0.09439322
O      2.68398281    -2.44176163    -0.21568514
C      3.65968201    -0.31665245    -0.02315492
C      3.56409241     1.06849101     0.10128166
C      2.30967461     1.67738561     0.15421948
C      1.14600833     0.89815746     0.08243639
H     -2.73114162     2.43796568     0.21529783
H     -4.78872080     1.06584968     0.08893135
H     -4.62964914    -1.40252075    -0.13283869
H     -2.41326832    -2.50173318    -0.22851527
H      1.79749844    -2.86796448    -0.25531297
H      4.63492913    -0.79606903    -0.06484999
H      4.46659230     1.67302417     0.15696389
H      2.24265555     2.76003684     0.25149585
