18
bm_2_3_dimethyl_1_4_benzoquinone conf 0 ff=MMFF E=3.356
C     -1.51851970    -1.50937481    -0.42668688
C     -0.31047090    -0.65752157    -0.15491862
C     -0.31197998     0.66899777     0.08852649
C     -1.51830279     1.56536614     0.10276854
C      0.96743520     1.38934949     0.36956234
O      1.00161767     2.59134934     0.60619849
C      2.21817926     0.61359825     0.36066388
C      2.22048463    -0.69543541     0.11277713
C      0.97231243    -1.42511393    -0.16265998
O      1.01178868    -2.62847283    -0.39143514
H     -1.54099807    -2.36858361     0.25307182
H     -1.49340769    -1.88338444    -1.45572305
H     -2.46522582    -0.98398258    -0.28871761
H     -1.69711966     1.94221048     1.11540973
H     -2.43313861     1.07429611    -0.23375907
H     -1.36561222     2.42217332    -0.56310175
H      3.12929775     1.16275624     0.56542820
H      3.13365982    -1.27822798     0.10259550
