46
SMD(acetonitrile)-opt r2scan/def2-svp q=0 m=2
C 5.14269726 -1.21419151 2.38836842
C 4.29862377 -0.84173066 1.20201636
C 3.94989560 -1.79312087 0.22914362
C 3.13043263 -1.45293262 -0.85235453
C 2.64565964 -0.14654605 -1.00330692
C 1.78409782 0.23563307 -2.18728284
C 2.99306319 0.81020093 -0.03608130
C 3.80335981 0.46619516 1.04774931
O 0.77941469 1.17877895 -1.86801577
C -0.25507837 0.66171218 -1.03387292
C -0.92830687 1.84089709 -0.36085311
C -2.05402782 1.42909237 0.59561425
C -2.92801740 2.64477886 0.90657213
C -1.49751501 0.85055082 1.90606624
N -2.93474111 0.40338479 -0.05157749
O -4.03962089 0.16215640 0.53392221
C -2.43776678 -0.65485512 -0.98945838
C -1.99376606 -1.87865726 -0.17294967
C -3.60917573 -1.04313041 -1.89243508
C -1.29286801 -0.10058135 -1.84601981
H 4.51143278 -1.50067182 3.24834475
H 5.79638306 -2.07137517 2.16645234
H 5.76990596 -0.37157723 2.71824102
H 4.31931703 -2.82002526 0.32567586
H 2.86236742 -2.21606889 -1.59184270
H 1.35784544 -0.67900769 -2.64340757
H 2.40356933 0.71841617 -2.96341268
H 2.61513004 1.83284974 -0.13732597
H 4.06260197 1.22764758 1.79185820
H 0.19298895 -0.00216948 -0.26963943
H -0.18743739 2.42879403 0.20575277
H -1.33366167 2.49746059 -1.15120730
H -3.70528913 2.39317708 1.64109241
H -3.41690074 3.01668040 -0.00787609
H -2.29960766 3.45039078 1.31670745
H -1.00771976 1.64769569 2.48739023
H -0.75877690 0.05434267 1.73179107
H -2.32356031 0.43740720 2.50550121
H -1.07145465 -1.69170298 0.39668789
H -1.80964629 -2.72954358 -0.84788137
H -2.79100887 -2.15883152 0.53297249
H -4.42171011 -1.49796982 -1.30927375
H -4.00609698 -0.15897963 -2.41613211
H -3.26437576 -1.76775230 -2.64613925
H -0.83356888 -0.94663285 -2.38354846
H -1.69966607 0.59118189 -2.60496501
