41
viologen/ox1 q=1 m=2 E=-23001.784367eV model=uma-s-1p1
C        6.13712286       0.46410449       2.17898504      -0.00786784       0.00268725       0.00518397
C        5.14020875       0.16332730       1.09569831       0.00715819       0.00270390      -0.00331563
C        4.80261665      -1.14506765       0.77088149      -0.00769606       0.00689763       0.00513206
C        3.91300814      -1.41764723      -0.25891207       0.01014564      -0.00337939      -0.00743963
C        3.33616128      -0.38442168      -0.98396524      -0.01188636      -0.00098714       0.00862991
C        2.35641322      -0.67338706      -2.08845509      -0.00131755      -0.00548192       0.00327955
C        3.66198819       0.92864486      -0.65795125       0.00937411      -0.00556910      -0.00608578
C        4.55160849       1.19648587       0.36707791      -0.01067989       0.00105669       0.00539552
N        0.95397642      -0.51498140      -1.64825647       0.00673185       0.00531541       0.00996173
C        0.25013825       0.60605680      -1.94783813      -0.00445690       0.00214976      -0.00078197
C       -1.01188776       0.80535137      -1.49398153       0.00006727      -0.00054968       0.00352339
C       -1.66459253      -0.16315195      -0.66983778      -0.00396215      -0.00691266      -0.00030334
C       -2.97463483       0.01438355      -0.18013328       0.00927351       0.00397200       0.00029017
C       -3.63955586      -0.95570171       0.63359879       0.00164562       0.00751966       0.00765962
C       -4.89348215      -0.74186739       1.10097279       0.00547730       0.00723716       0.00207468
N       -5.58239996       0.39734074       0.82095926      -0.01614079       0.00240821      -0.00322051
C       -6.92448762       0.62920346       1.35042788      -0.00578641      -0.00159272       0.00287140
C       -4.99122459       1.34675862       0.04056395       0.00635829       0.00591144       0.00309972
C       -3.74213808       1.18949832      -0.45488604      -0.00343830      -0.00021924      -0.00133873
C       -0.88083393      -1.32248174      -0.37558450       0.00633672       0.00094095      -0.00123221
C        0.37949677      -1.45827905      -0.85591718      -0.00404096      -0.00113545      -0.00218296
H        5.80673602       1.29983647       2.79542971       0.00261129       0.00453341       0.00560447
H        6.29356342      -0.39810787       2.82517697       0.00129555       0.00022283      -0.00208493
H        7.10203992       0.73748008       1.74694739      -0.01176275      -0.00551294       0.00198419
H        5.24718767      -1.96288464       1.32459060       0.00570913       0.00027423      -0.01055293
H        3.68594739      -2.44864591      -0.50812262      -0.00011131      -0.00314657      -0.00710947
H        2.49897879       0.00224502      -2.93070992      -0.00500876      -0.00681289      -0.00044899
H        2.47203784      -1.69207321      -2.45703607      -0.00692393      -0.00669417       0.00318321
H        3.22884508       1.75062702      -1.21801504      -0.00372694       0.00074461       0.00123427
H        4.80194890       2.22390360       0.60289202       0.00378852      -0.00414049       0.00289151
H        0.75422768       1.32666343      -2.57543953       0.00247379       0.00194774      -0.00288567
H       -1.50088500       1.72016706      -1.78747804      -0.00260286      -0.00038450      -0.00572171
H       -3.17013591      -1.88887010       0.90189671       0.01440312       0.00371519      -0.00938924
H       -5.40774684      -1.46341775       1.71917962       0.01494566       0.00110185      -0.00526042
H       -7.23589086      -0.23759347       1.92538376       0.00773963      -0.00414932       0.00314662
H       -7.62948744       0.78044475       0.53467198       0.01350106       0.00387919      -0.00795207
H       -6.92363858       1.50298801       1.99995380      -0.00878121      -0.00340892       0.00235358
H       -5.58092623       2.23125240      -0.15377056      -0.00515432      -0.00490575       0.00105962
H       -3.34725030       1.99110932      -1.05835775      -0.00928893       0.00235913       0.00016192
H       -1.26385444      -2.11842311       0.24307480       0.00646504      -0.00096413      -0.00352742
H        0.99080123      -2.32087062      -0.63279677      -0.00486716      -0.00163123       0.00211265
