41
conf 6 ff=MMFF E=153.041 Rg=4.81 smiles=Cc1ccc(C[n+]2ccc(-c3cc[n+](C)cc3)cc2)cc1
C      6.29333814     1.79696644     0.37363785
C      5.25502426     0.75667268     0.06394547
C      4.39167755     0.91867382    -1.02371358
C      3.41326452    -0.03845560    -1.30191373
C      3.27284265    -1.17039828    -0.48516333
C      2.20920644    -2.19713081    -0.76818712
C      4.13618996    -1.32639514     0.60935501
C      5.11271935    -0.36660989     0.88390002
N      0.85418357    -1.63165922    -0.51861983
C      0.02926579    -1.36936307    -1.55619902
C     -1.24002447    -0.83135821    -1.33671678
C     -1.68468810    -0.55832625    -0.03776352
C     -3.02117232     0.01614245     0.21575703
C     -3.44677608     1.18592241    -0.42506607
C     -4.71178652     1.71678282    -0.16856358
N     -5.55039857     1.10531272     0.69583050
C     -6.88105774     1.68847228     0.96011340
C     -5.17429129    -0.02159133     1.33848931
C     -3.91593006    -0.58111444     1.11172520
C     -0.80480640    -0.85009854     1.01059627
C      0.45764431    -1.38421683     0.75079091
H      5.87541333     2.55304029     1.04532854
H      7.16946024     1.34451827     0.84996837
H      6.63915173     2.28824152    -0.54191782
H      4.49097456     1.79081130    -1.66917152
H      2.77982424     0.11670541    -2.17235091
H      2.27094177    -2.53895373    -1.80724664
H      2.30346420    -3.08050640    -0.12530967
H      4.07697683    -2.19699260     1.26100232
H      5.77707176    -0.50462984     1.73669371
H      0.38953437    -1.58728341    -2.55845947
H     -1.87968234    -0.63913865    -2.19754317
H     -2.79342953     1.71114185    -1.12100275
H     -5.05763018     2.62991343    -0.64671919
H     -7.58012086     0.88536996     1.20705491
H     -7.22779149     2.20788196     0.06309439
H     -6.77213498     2.38304369     1.79659957
H     -5.88368711    -0.46848145     2.03065768
H     -3.65135878    -1.49735564     1.63849911
H     -1.08075428    -0.64866278     2.04512788
H      1.15935153    -1.60689118     1.55089994
