41
conf 3 ff=MMFF E=152.973 Rg=4.81 smiles=Cc1ccc(C[n+]2ccc(-c3cc[n+](C)cc3)cc2)cc1
C     -6.27218103    -1.73639091     0.95658271
C     -5.21413113    -0.74829421     0.55591126
C     -4.99678862     0.40286006     1.31879248
C     -4.04354365     1.34491054     0.92631882
C     -3.29344910     1.15339841    -0.24340183
C     -2.25185507     2.15968635    -0.65325200
C     -3.53008587     0.00880812    -1.01924668
C     -4.48489253    -0.93037056    -0.62294831
N     -0.88555804     1.58010655    -0.52871635
C     -0.17204582     1.28580293    -1.63782275
C      1.10599447     0.73369332    -1.53509957
C      1.67493997     0.47927762    -0.28166447
C      3.02249340    -0.11006909    -0.15046208
C      4.01046982     0.49275931     0.63731121
C      5.27753062    -0.08140210     0.75056299
N      5.56891480    -1.23355525     0.10869616
C      6.91780084    -1.82082031     0.23598084
C      4.64487835    -1.84212166    -0.66601217
C      3.36786439    -1.29709392    -0.80759773
C      0.90821288     0.80414422     0.84305405
C     -0.36707453     1.35147239     0.69961848
H     -7.23265794    -1.45587116     0.51355918
H     -6.38037773    -1.77168627     2.04572513
H     -6.00909652    -2.74588369     0.62357759
H     -5.58270349     0.57525573     2.22138977
H     -3.91600836     2.23216000     1.54489783
H     -2.27033723     3.05663323    -0.02264292
H     -2.41354828     2.48189974    -1.68781058
H     -2.99527875    -0.16774120    -1.94975084
H     -4.67018723    -1.80550848    -1.24499765
H     -0.62814483     1.48943823    -2.60337476
H      1.65372186     0.51549018    -2.45133267
H      3.81316589     1.42603777     1.16368172
H      6.06200843     0.37521279     1.34901085
H      7.53235583    -1.40202800    -0.56460026
H      7.32704710    -1.56630691     1.21698585
H      6.84402684    -2.90750207     0.14475921
H      4.93358785    -2.76284379    -1.16697328
H      2.64354534    -1.82324039    -1.42853315
H      1.28377633     0.61860473     1.84880297
H     -0.98238924     1.59957429     1.56102093
