41
conf 9 ff=MMFF E=153.043 Rg=4.81 smiles=Cc1ccc(C[n+]2ccc(-c3cc[n+](C)cc3)cc2)cc1
C     -6.27247887     0.40140190    -1.90600050
C     -5.24912932     0.10780720    -0.84638829
C     -5.09136061     0.96936006     0.24315124
C     -4.12824097     0.70868575     1.22021044
C     -3.29376490    -0.41393899     1.11536441
C     -2.24412216    -0.68253896     2.16021527
C     -3.44956442    -1.27275389     0.01708086
C     -4.41454387    -1.00834978    -0.95742412
N     -0.87959471    -0.49338244     1.59415276
C     -0.08169076    -1.56284169     1.38090270
C      1.19610204    -1.40030963     0.84277665
C      1.67737858    -0.12636303     0.51878700
C      3.02325896     0.06731922    -0.05707374
C      3.43922932    -0.63503755    -1.19450588
C      4.71315833    -0.43355622    -1.72767033
N      5.56606458     0.44366651    -1.15541286
C      6.91306600     0.63207041    -1.73045406
C      5.20576885     1.13272584    -0.05106305
C      3.93902362     0.96198863     0.50954473
C      0.82469656     0.95659196     0.76082360
C     -0.44731310     0.75344544     1.29679472
H     -6.64823187    -0.52512030    -2.35282688
H     -5.82876296     1.01986002    -2.69227017
H     -7.13311446     0.92984078    -1.48250155
H     -5.73325638     1.84455037     0.34140132
H     -4.05670212     1.39377821     2.06373014
H     -2.32586416    -0.00109254     3.01547939
H     -2.33609393    -1.70441832     2.54441112
H     -2.83895292    -2.16548494    -0.09770809
H     -4.52625552    -1.68646253    -1.80289213
H     -0.47028736    -2.54504362     1.63794136
H      1.81315521    -2.28535377     0.69092176
H      2.77277185    -1.33938105    -1.69122054
H      5.05632678    -0.96784038    -2.61017866
H      7.56547448    -0.12396980    -1.28675523
H      7.26668686     1.63916763    -1.49537805
H      6.85533757     0.51194747    -2.81540464
H      5.93497654     1.81488705     0.37894260
H      3.68530521     1.52937277     1.40435837
H      1.12980071     1.97399804     0.51831434
H     -1.12825668     1.58077419     1.48122261
