41
conf 0 ff=MMFF E=152.971 Rg=4.81 smiles=Cc1ccc(C[n+]2ccc(-c3cc[n+](C)cc3)cc2)cc1
C     -6.33304626    -1.72441295    -0.15061144
C     -5.24221958    -0.69258260    -0.19263471
C     -5.02575617     0.06041729    -1.35044071
C     -4.04088920     1.05003988    -1.37967004
C     -3.25747054     1.30801016    -0.24509251
C     -2.18241149     2.36068849    -0.28545134
C     -3.49265870     0.56673902     0.92248095
C     -4.47915153    -0.42168861     0.94710042
N     -0.83323920     1.73539267    -0.20221622
C     -0.09043930     1.87625961     0.91770440
C      1.17183457     1.28762925     1.01209817
C      1.69448167     0.54485230    -0.05311598
C      3.02469265    -0.09099457     0.02860222
C      3.99845533     0.12147661    -0.95460399
C      5.24940192    -0.49014230    -0.85972865
N      5.54188422    -1.29655265     0.18360188
C      6.86666632    -1.94461089     0.25802044
C      4.62576213    -1.53437218     1.14718978
C      3.36517390    -0.93813847     1.09001162
C      0.89861982     0.42761377    -1.19820157
C     -0.35970095     1.02771060    -1.25334173
H     -6.08037063    -2.53079142     0.54587095
H     -7.27260494    -1.26239808     0.16759366
H     -6.47722323    -2.17980297    -1.13601360
H     -5.63686775    -0.11577698    -2.23542975
H     -3.91499343     1.61971234    -2.29931362
H     -2.20263514     2.93924503    -1.21678689
H     -2.30374681     3.06719027     0.54304794
H     -2.93180523     0.75167526     1.83586342
H     -4.66240272    -0.97701686     1.86642972
H     -0.51066240     2.45607434     1.73564008
H      1.74435989     1.42823373     1.92837685
H      3.80200963     0.77523864    -1.80371481
H      6.01928811    -0.33960646    -1.61249605
H      6.79160315    -2.90069186    -0.26569193
H      7.60824661    -1.29630794    -0.21569029
H      7.13291944    -2.09348515     1.30758422
H      4.90660576    -2.20404053     1.95633481
H      2.64819856    -1.16029166     1.87972275
H      1.23741514    -0.14870998    -2.05846263
H     -0.99732362     0.93821583    -2.12946790
