41
conf 5 ff=MMFF E=153.041 Rg=4.81 smiles=Cc1ccc(C[n+]2ccc(-c3cc[n+](C)cc3)cc2)cc1
C      6.22117674     0.86999138    -1.83746577
C      5.22722693     0.39286895    -0.81735194
C      4.42620995     1.30705021    -0.12650997
C      3.48825469     0.86386262     0.80869532
C      3.32588445    -0.50699770     1.05862951
C      2.30476766    -0.99307242     2.05193393
C      4.12635985    -1.42189873     0.35871670
C      5.06258572    -0.97419165    -0.57574112
N      0.92469882    -0.74148301     1.55169415
C      0.44824552    -1.46696873     0.51413050
C     -0.83932090    -1.24702040     0.02386726
C     -1.66220377    -0.26992405     0.59529413
C     -3.02420690    -0.01536474     0.08478154
C     -3.43801905     1.27083078    -0.28215039
C     -4.72785910     1.49094534    -0.76766355
N     -5.60177870     0.46757069    -0.88302154
C     -6.95880486     0.72028899    -1.40760501
C     -5.23845859    -0.78871517    -0.54519902
C     -3.95635327    -1.04994483    -0.05948039
C     -1.13539428     0.45757248     1.66896591
C      0.15670562     0.20587200     2.13355672
H      7.07775787     0.19024303    -1.89574814
H      5.74694890     0.92802305    -2.82195171
H      6.60915842     1.85898965    -1.57189260
H      4.54339883     2.37507746    -0.30730422
H      2.90397916     1.61176177     1.33996428
H      2.38122314    -2.07216970     2.23146660
H      2.43563029    -0.48958223     3.01612878
H      4.04877122    -2.49433598     0.53178413
H      5.67834529    -1.69831370    -1.10880387
H      1.10639130    -2.21347187     0.07626646
H     -1.18048558    -1.83966296    -0.82428606
H     -2.75695692     2.11830949    -0.21157911
H     -5.06576440     2.47951082    -1.06866754
H     -6.91571325     0.60248316    -2.49308430
H     -7.26351597     1.73421782    -1.13606226
H     -7.65266154     0.00200364    -0.96345711
H     -5.97704157    -1.57735367    -0.66599491
H     -3.70234609    -2.07334446     0.21460067
H     -1.72732966     1.22464489     2.16730413
H      0.58049404     0.76169780     2.96618678
