41
conf 7 ff=MMFF E=153.042 Rg=4.81 smiles=Cc1ccc(C[n+]2ccc(-c3cc[n+](C)cc3)cc2)cc1
C     -6.32552417     1.58027078     0.64255107
C     -5.27108248     0.59631803     0.22278407
C     -5.06708911    -0.57707248     0.95482206
C     -4.07527157    -1.48509254     0.57803313
C     -3.25815383    -1.22632081    -0.53238659
C     -2.17779079    -2.19785737    -0.92549201
C     -3.46038585    -0.04446306    -1.26067859
C     -4.45387323     0.86059518    -0.88036620
N     -0.83057425    -1.61055524    -0.68421628
C     -0.39381647    -1.44124803     0.58481719
C      0.86215676    -0.88869808     0.83731634
C      1.69373216    -0.49716852    -0.21795690
C      3.02212915     0.09849464     0.02907911
C      3.96657495    -0.53441064     0.84611484
C      5.21604301     0.04609725     1.06923351
N      5.53162560     1.23313749     0.50736541
C      6.86170052     1.82681910     0.75031844
C      4.65009322     1.87175934    -0.29227826
C      3.39207956     1.32172099    -0.54275990
C      1.20854542    -0.69143633    -1.51656084
C     -0.05265880    -1.25092188    -1.72890657
H     -7.17026002     1.06907617     1.11613680
H     -6.71894490     2.12397691    -0.22276878
H     -5.90385027     2.29957675     1.35125064
H     -5.69496918    -0.79486730     1.81853402
H     -3.96757663    -2.39720334     1.16331196
H     -2.22340164    -3.12675953    -0.34446737
H     -2.26885921    -2.46738432    -1.98349103
H     -2.86450573     0.19074175    -2.13964567
H     -4.60140363     1.77260274    -1.45792451
H     -1.05862600    -1.74090625     1.39127777
H      1.17097678    -0.75232925     1.87319003
H      3.74922201    -1.49591620     1.31008914
H      5.96736714    -0.43303960     1.69211732
H      7.53112023     1.45681702    -0.03005048
H      7.21174671     1.52559242     1.74095806
H      6.77903709     2.91596679     0.71070495
H      4.95728221     2.82029584    -0.72581897
H      2.70129960     1.87206051    -1.18070336
H      1.80990382    -0.41974146    -2.38354254
H     -0.44401817    -1.40852747    -2.73081222
