41
conf 1 ff=MMFF E=152.971 Rg=4.81 smiles=Cc1ccc(C[n+]2ccc(-c3cc[n+](C)cc3)cc2)cc1
C     -6.35883909    -0.31187828     1.59670717
C     -5.24796269    -0.29247450     0.58580614
C     -4.51581668     0.87704253     0.36032728
C     -3.51057355     0.90949922    -0.60879337
C     -3.22516428    -0.22977733    -1.37600623
C     -2.12972651    -0.20858218    -2.40803293
C     -3.97753963    -1.39442662    -1.16368317
C     -4.98132997    -1.42225746    -0.19321796
N     -0.79583387    -0.10088050    -1.75433951
C     -0.30310398    -1.15572500    -1.06553704
C      0.94134987    -1.07819937    -0.43955428
C      1.70312489     0.09355335    -0.51078174
C      3.01792810     0.19887724     0.15304162
C      3.30920043     1.24713867     1.03422163
C      4.55594050     1.32689379     1.65642103
N      5.50591692     0.39851334     1.41151546
C      6.81532894     0.49596795     2.08716808
C      5.26128060    -0.63131497     0.57247673
C      4.02564432    -0.74802153    -0.06589989
C      1.16153099     1.16191503    -1.23525229
C     -0.08586784     1.04474341    -1.85088158
H     -7.29882502    -0.00947304     1.12505878
H     -6.14287419     0.36934093     2.42643921
H     -6.48133355    -1.31337110     2.02234672
H     -4.73807620     1.77491284     0.93614399
H     -2.97507511     1.84432487    -0.75834415
H     -2.10993612    -1.12410255    -3.01131896
H     -2.26355772     0.63461159    -3.09461267
H     -3.81229938    -2.29399999    -1.75495185
H     -5.56775472    -2.33003049    -0.05262144
H     -0.91461620    -2.05313319    -1.01181132
H      1.29592412    -1.94292380     0.12036801
H      2.56394388     2.00830101     1.26284136
H      4.79877825     2.12604367     2.35243070
H      7.58357835     0.06468471     1.44029513
H      6.73930149    -0.05716662     3.02646304
H      7.04508799     1.54865260     2.27077392
H      6.05692768    -1.35585578     0.41746982
H      3.86807750    -1.58493735    -0.74540256
H      1.70769045     2.09883136    -1.34028061
H     -0.52044896     1.86478021    -2.41699229
