41
conf 2 ff=MMFF E=152.973 Rg=4.81 smiles=Cc1ccc(C[n+]2ccc(-c3cc[n+](C)cc3)cc2)cc1
C     -6.31032550     0.71329305     1.71977511
C     -5.23457933     0.35483907     0.73457276
C     -4.42188350    -0.76248499     0.94850535
C     -3.44901794    -1.12220258     0.01314445
C     -3.27751994    -0.37130834    -1.15936038
C     -2.21766696    -0.74068719    -2.16224634
C     -4.11044978     0.73509973    -1.38219733
C     -5.08146171     1.09121337    -0.44385334
N     -0.85899997    -0.49986926    -1.60169366
C     -0.42735286     0.76922811    -1.42008388
C      0.83893430     1.02133341    -0.89144419
C      1.68635510    -0.03443982    -0.53701322
C      3.02593094     0.21202582     0.03327873
C      3.95042096     1.04658220    -0.60618598
C      5.21086400     1.26893194    -0.04961084
N      5.55655832     0.68929408     1.12037561
C      6.89772059     0.93186512     1.68872062
C      4.69496285    -0.12751955     1.76445499
C      3.42684520    -0.37781519     1.23805764
C      1.20595321    -1.33301727    -0.74301437
C     -0.06601509    -1.54489509    -1.27777296
H     -6.01594419     0.43467019     2.73706967
H     -7.23911043     0.19395824     1.46456918
H     -6.49545957     1.79260336     1.71947782
H     -4.55530473    -1.36566721     1.84600706
H     -2.84796025    -2.00589067     0.21525276
H     -2.28829405    -0.14415436    -3.07967978
H     -2.30797988    -1.79455525    -2.44770085
H     -4.03447957     1.33033471    -2.29106855
H     -5.73146915     1.94361931    -0.64032352
H     -1.10439463     1.57585653    -1.69051992
H      1.14350706     2.05692793    -0.74387833
H      3.70856775     1.52526197    -1.55454111
H      5.94703805     1.90536691    -0.53442311
H      7.23427943     1.92988627     1.39662501
H      6.83937308     0.87347594     2.77860043
H      7.56412157     0.16261367     1.29101728
H      5.02608647    -0.57484318     2.69842586
H      2.75284485    -1.03002477     1.79246963
H      1.81923541    -2.20012572    -0.49988248
H     -0.45393009    -2.54675138    -1.44390580
