41
conf 8 ff=MMFF E=153.042 Rg=4.81 smiles=Cc1ccc(C[n+]2ccc(-c3cc[n+](C)cc3)cc2)cc1
C      6.16908615    -1.74527338     1.26490684
C      5.20260584    -0.80485130     0.60329297
C      5.08523149    -0.77555849    -0.78943180
C      4.17448219     0.08440018    -1.40682990
C      3.35245794     0.92153256    -0.63796534
C      2.35876805     1.83422294    -1.30518090
C      3.46735999     0.88463253     0.75972057
C      4.37997163     0.02322535     1.37282690
N      0.96576622     1.38711872    -1.02629420
C      0.17398776     2.11279165    -0.20632447
C     -1.13070143     1.70038563     0.07018935
C     -1.64555081     0.53048628    -0.50058553
C     -3.02054267     0.07302109    -0.21666528
C     -3.48110140    -0.08635024     1.09582333
C     -4.78230148    -0.52588592     1.34394837
N     -5.61895423    -0.80599311     0.32124893
C     -6.99540046    -1.25886385     0.60565448
C     -5.21538485    -0.65484051    -0.95884087
C     -3.92057008    -0.22140211    -1.24785688
C     -0.79783614    -0.18977039    -1.34971989
C      0.50155823     0.25292179    -1.59898676
H      7.04601219    -1.91377827     0.63103187
H      5.68188188    -2.70576332     1.45869019
H      6.52863313    -1.33226641     2.21323271
H      5.71827427    -1.41737684    -1.40179377
H      4.13374807     0.09078439    -2.49512601
H      2.48404906     2.86368133    -0.95188351
H      2.47209463     1.84482889    -2.39585646
H      2.86498115     1.52815055     1.39689932
H      4.46032930     0.00826469     2.45929347
H      0.58880381     3.01863802     0.22863086
H     -1.74155327     2.31468073     0.73095800
H     -2.82938279     0.11574680     1.94519849
H     -5.15980910    -0.65667970     2.35509650
H     -7.62324169    -0.36747705     0.67813032
H     -7.00021791    -1.81811987     1.54473259
H     -7.33217504    -1.90945202    -0.20549218
H     -5.93300633    -0.87943320    -1.74409369
H     -3.63192764    -0.10435644    -2.29188240
H     -1.12906512    -1.11716670    -1.81578910
H      1.17863945    -0.29885502    -2.24648196
