44
conf 7 ff=MMFF E=94.559 Rg=5.25 smiles=Cc1ccc(COCc2ccc3c(c2)C(=O)c2ccccc2C3=O)cc1
C     -7.10933218     1.23034484    -1.43295535
C     -6.04983985     0.53536033    -0.63035129
C     -5.08951519     1.27568532     0.06718469
C     -4.08503953     0.62822427     0.78953359
C     -4.01114568    -0.77107117     0.81321399
C     -2.93198293    -1.46751338     1.60508020
C     -4.97040333    -1.51037128     0.11023604
C     -5.97562328    -0.86194454    -0.61214022
O     -1.64572754    -0.90106489     1.35602136
C     -1.07711885    -1.35924644     0.13314356
C      0.20641719    -0.60269492    -0.09026357
C      0.17127216     0.72615478    -0.53686008
C      1.35463898     1.44234977    -0.72853095
C      2.58924016     0.83690776    -0.46808217
C      3.83526482     1.60322151    -0.67051747
O      3.79576757     2.75778149    -1.07992440
C      5.13082754     0.95975323    -0.37413245
C      6.31905137     1.68092403    -0.54991960
C      7.54851890     1.08055097    -0.27317052
C      7.59536078    -0.23803759     0.17823921
C      6.41281974    -0.95876407     0.35372832
C      5.17764191    -0.35818821     0.07708181
C      3.93236792    -1.12933368     0.26416464
O      3.97526923    -2.29412622     0.64341741
C      2.63557508    -0.48034525    -0.01607076
C      1.44710402    -1.19873469     0.17610545
H     -8.02367518     0.62925867    -1.47649909
H     -7.37456649     2.19174192    -0.98063095
H     -6.75183348     1.40534833    -2.45231173
H     -5.11809013     2.36293342     0.05595555
H     -3.34986650     1.21981498     1.33242960
H     -3.15026636    -1.33532583     2.67076150
H     -2.91134325    -2.54670842     1.41097210
H     -4.94279514    -2.59759410     0.11536831
H     -6.70440788    -1.45607792    -1.15920250
H     -0.88523943    -2.43691201     0.19523190
H     -1.75313691    -1.18219924    -0.71173223
H     -0.78530183     1.21094509    -0.72715689
H      1.30807842     2.47348293    -1.07441213
H      6.29051546     2.71075283    -0.90211374
H      8.46983570     1.64253390    -0.41003740
H      8.55331158    -0.70616317     0.39402205
H      6.45750266    -1.98784746     0.70634602
H      1.48986978    -2.22380587     0.54207948
