44
conf 4 ff=MMFF E=94.559 Rg=5.25 smiles=Cc1ccc(COCc2ccc3c(c2)C(=O)c2ccccc2C3=O)cc1
C      7.09756954     1.87260656    -0.08870578
C      6.04447514     0.80495272    -0.06034655
C      5.96428017    -0.14021794    -1.08919182
C      4.96472627    -1.11672402    -1.08013767
C      4.01704598    -1.15370867    -0.04987038
C      2.94419890    -2.21449713    -0.02947225
C      4.09686458    -0.20313119     0.97681486
C      5.09567332     0.77270052     0.96707298
O      1.65774862    -1.65890117     0.24200382
C      1.07216906    -1.05560970    -0.90767686
C     -0.20979119    -0.39163763    -0.47706988
C     -0.17298824     0.82955696     0.21128551
C     -1.35463244     1.44337784     0.63196781
C     -2.58901748     0.83656397     0.37367158
C     -3.83314950     1.49149638     0.82532329
O     -3.79253813     2.56856818     1.40880532
C     -5.12819126     0.83205866     0.56381508
C     -6.31441499     1.43732866     0.99900223
C     -7.54338982     0.82174684     0.75546655
C     -7.59173658    -0.39632722     0.07826395
C     -6.41119710    -1.00111125    -0.35671984
C     -5.17650968    -0.38543135    -0.11304683
C     -3.93338600    -1.03214510    -0.57864088
O     -3.97791396    -2.09360788    -1.18997462
C     -2.63684381    -0.38103969    -0.30217705
C     -1.45011111    -0.99665657    -0.72424251
H      8.00845259     1.51002303    -0.57660363
H      6.72871764     2.74743376    -0.63289366
H      7.37279158     2.17706227     0.92657249
H      6.68397125    -0.12407588    -1.90477831
H      4.93237243    -1.84525261    -1.88700924
H      3.17591344    -2.92001229     0.77635064
H      2.91610110    -2.78865493    -0.96345132
H      3.37073218    -0.21790767     1.78780772
H      5.12894611     1.50577277     1.76991252
H      0.87510277    -1.82110920    -1.66742527
H      1.73906988    -0.30427726    -1.34689065
H      0.78366026     1.30165571     0.43085903
H     -1.30680391     2.39064304     1.16623483
H     -6.28469716     2.38833127     1.52826212
H     -8.46314708     1.29335193     1.09460984
H     -8.54930263    -0.87630673    -0.11163477
H     -6.45704858    -1.95203922    -0.88491050
H     -1.49377219    -1.95484875    -1.24048055
