44
conf 2 ff=MMFF E=94.543 Rg=5.25 smiles=Cc1ccc(COCc2ccc3c(c2)C(=O)c2ccccc2C3=O)cc1
C      7.07274309    -1.66814166     1.08382420
C      6.00447249    -0.82505493     0.45319358
C      6.00276690     0.56372601     0.62509942
C      5.02685236     1.35401699     0.01206958
C      4.03723461     0.76833970    -0.78702749
C      2.99046377     1.62015531    -1.46195171
C      4.05639202    -0.61991722    -0.97791711
C      5.03159274    -1.40923456    -0.36477087
O      1.68300287     1.06727087    -1.31266536
C      1.11795047     1.34464944    -0.03499986
C     -0.19092529     0.60476871     0.06011575
C     -0.20268694    -0.77585238     0.30547529
C     -1.40989959    -1.47427635     0.37536764
C     -2.62148044    -0.79792858     0.19291494
C     -3.89295205    -1.54553905     0.26523835
O     -3.89460874    -2.74849212     0.49994602
C     -5.16372688    -0.82440759     0.05199440
C     -6.37564987    -1.52531367     0.10531242
C     -7.58197481    -0.85179596    -0.09413575
C     -7.58207880     0.51972007    -0.34629241
C     -6.37585431     1.22032425    -0.39944097
C     -5.16382504     0.54643993    -0.20005294
C     -3.89321419     1.29660167    -0.25646294
O     -3.89518931     2.50533318    -0.45986767
C     -2.62111422     0.57234710    -0.05998083
C     -1.40875319     1.27284509    -0.12997084
H      7.93024300    -1.75198796     0.40915243
H      6.69725223    -2.67254184     1.30612599
H      7.40787589    -1.23048880     2.03006457
H      6.76470592     1.04045050     1.23794681
H      5.04923268     2.43081668     0.16326056
H      3.00468193     2.65421880    -1.09687760
H      3.21484606     1.65262113    -2.53403497
H      3.30449620    -1.09155417    -1.60833165
H      5.02643724    -2.48397996    -0.53196163
H      0.96066882     2.42423623     0.07367079
H      1.78027696     1.01451768     0.77402648
H      0.73570242    -1.31382754     0.43302085
H     -1.39980692    -2.54609462     0.56548520
H     -6.38360364    -2.59617014     0.30179415
H     -8.52175898    -1.39811670    -0.05264997
H     -8.52198216     1.04485874    -0.50179783
H     -6.38404676     2.29102260    -0.59664122
H     -1.41475853     2.34143512    -0.34120894
