44
conf 5 ff=MMFF E=94.559 Rg=5.25 smiles=Cc1ccc(COCc2ccc3c(c2)C(=O)c2ccccc2C3=O)cc1
C     -7.25851083    -0.05041056     1.09577629
C     -6.09439428     0.09871107     0.16181111
C     -5.94504911    -0.76444256    -0.92950131
C     -4.84474258    -0.64653654    -1.78283461
C     -3.86528360     0.32649659    -1.54877736
C     -2.68255212     0.46563926    -2.47531647
C     -4.01492124     1.18662283    -0.45249203
C     -5.11443260     1.06810791     0.40014550
O     -1.45649947     0.57698608    -1.75300264
C     -0.97878789    -0.68407711    -1.29459627
C      0.23616779    -0.43344119    -0.43974636
C      0.08844809     0.04690183     0.86943425
C      1.20891698     0.30104524     1.66315592
C      2.49318584     0.08318688     1.15145597
C      3.67224681     0.35794816     1.99709953
O      3.53308331     0.75871367     3.14697162
C      5.02243612     0.14246794     1.43948412
C      6.14886970     0.41207873     2.22772455
C      7.42921190     0.21048233     1.70934884
C      7.58842512    -0.25996663     0.40628606
C      6.46759170    -0.52974537    -0.38086053
C      5.18156830    -0.32773823     0.13704780
C      4.00214850    -0.61764268    -0.70277274
O      4.14257280    -1.04861888    -1.84161281
C      2.65187505    -0.38597760    -0.15097200
C      1.52650239    -0.64093397    -0.94720853
H     -8.13976294    -0.42556936     0.56485975
H     -7.00590215    -0.74837108     1.89986763
H     -7.53180580     0.91404019     1.53665719
H     -6.68865969    -1.53411694    -1.12453735
H     -4.75934394    -1.32400334    -2.62934994
H     -2.62249727    -0.36208178    -3.19227842
H     -2.80885973     1.38668976    -3.05540755
H     -3.26521727     1.95123084    -0.25623148
H     -5.20136617     1.74089683     1.25034949
H     -1.73813232    -1.20583450    -0.70018037
H     -0.72415816    -1.31742698    -2.15254246
H     -0.90642045     0.23455260     1.27104303
H      1.07518915     0.67493101     2.67674688
H      6.03255862     0.77950054     3.24599578
H      8.30241454     0.42084206     2.32306579
H      8.58604732    -0.41713112     0.00202792
H      6.59995721    -0.89694616    -1.39722376
H      1.65788241    -0.99505979    -1.96891005
