44
conf 1 ff=MMFF E=94.543 Rg=5.25 smiles=Cc1ccc(COCc2ccc3c(c2)C(=O)c2ccccc2C3=O)cc1
C     -7.15533750     0.89614919     1.65323398
C     -6.04117871     0.31387267     0.83512890
C     -6.00086734     0.50929105    -0.54995275
C     -4.98121976    -0.05920575    -1.31800541
C     -3.98562707    -0.83656799    -0.71350854
C     -2.89126120    -1.46364796    -1.54174719
C     -4.04274979    -1.05150038     0.67018374
C     -5.06165834    -0.48285037     1.43728861
O     -1.60746892    -1.28270130    -0.94462132
C     -1.07506071     0.01663935    -1.18317935
C      0.20596330     0.14031200    -0.40003613
C      0.16604329     0.36214404     0.98403604
C      1.34762878     0.45812965     1.72206426
C      2.58528799     0.32571900     1.08227229
C      3.82942905     0.42532206     1.87156560
O      3.78539038     0.63924221     3.07758672
C      5.12863166     0.26477910     1.18843031
C      6.31537592     0.34430393     1.92882327
C      7.54824125     0.19469233     1.29141552
C      7.59994646    -0.03370384    -0.08328547
C      6.41887967    -0.11288380    -0.82319037
C      5.18030626     0.03647985    -0.18560141
C      3.93659440    -0.04714533    -0.97716010
O      3.98343598    -0.22956202    -2.18833475
C      2.63650729     0.09654477    -0.29121603
C      1.44984671     0.00033177    -1.03148455
H     -7.50646449     1.83869631     1.22018649
H     -6.81929672     1.11299767     2.67269020
H     -7.99305677     0.19351564     1.69849294
H     -6.76650636     1.10585216    -1.04118883
H     -4.97421862     0.10945709    -2.39241702
H     -2.88429886    -1.08169072    -2.56976981
H     -3.08007766    -2.54155575    -1.59855553
H     -3.28641764    -1.66584199     1.15573109
H     -5.08528703    -0.66800940     2.50883431
H     -1.77307223     0.79869837    -0.86169573
H     -0.88715991     0.14853071    -2.25525868
H     -0.79255082     0.45070153     1.49346419
H      1.29744464     0.62936827     2.79593656
H      6.28304591     0.52248920     3.00241901
H      8.46840699     0.25645186     1.86835696
H      8.56054392    -0.15037306    -0.58029052
H      6.46735896    -0.29127916    -1.89611896
H      1.49652766    -0.19219295    -2.10260537
