44
conf 9 ff=MMFF E=94.664 Rg=4.89 smiles=Cc1ccc(COCc2ccc3c(c2)C(=O)c2ccccc2C3=O)cc1
C     -5.83821863     2.07568967    -1.68016478
C     -5.11731104     1.02954309    -0.88309905
C     -5.54760860    -0.30174501    -0.90469861
C     -4.89399688    -1.27169224    -0.13986914
C     -3.79968193    -0.92593121     0.66295650
C     -3.10419817    -1.97143247     1.50033057
C     -3.39021541     0.41369204     0.70540828
C     -4.04203678     1.38210742    -0.06091372
O     -1.68527800    -1.81527183     1.48352262
C     -1.09447334    -2.32388534     0.29157180
C      0.36126921    -1.93608475     0.30071490
C      1.34980080    -2.85727314     0.67037680
C      2.69441485    -2.47936661     0.69710433
C      3.06309456    -1.17083745     0.36225275
C      4.48732228    -0.78246449     0.39812035
O      5.34724879    -1.60128648     0.70203642
C      4.86248828     0.60538533     0.06152098
C      6.20952535     0.98843423     0.10251659
C      6.57370853     2.29813882    -0.21475125
C      5.59698757     3.22665243    -0.57321079
C      4.25426100     2.84718866    -0.61509634
C      3.88616333     1.53337123    -0.29675207
C      2.46324460     1.14137411    -0.34537143
O      1.60789035     1.95561492    -0.67325965
C      2.08724245    -0.24382673     0.00307590
C      0.73924583    -0.62422952    -0.02601178
H     -5.15515914     2.87688844    -1.98141368
H     -6.64914226     2.50675133    -1.08509635
H     -6.25968040     1.64759525    -2.59576973
H     -6.39717817    -0.59238824    -1.51869726
H     -5.24920301    -2.29893746    -0.17663924
H     -3.36965910    -2.98818109     1.18637729
H     -3.43593093    -1.85364205     2.53795194
H     -2.55296811     0.70775204     1.33630461
H     -3.70195472     2.41424730    -0.01098869
H     -1.20515080    -3.41419109     0.26191194
H     -1.57400410    -1.90965628    -0.60322389
H      1.07817201    -3.87374570     0.94892567
H      3.45086881    -3.20681869     0.98682790
H      6.97774201     0.26913211     0.38145300
H      7.62015193     2.59350029    -0.18194598
H      5.88033780     4.24740040    -0.82047633
H      3.49737269     3.57767593    -0.89599547
H     -0.02550349     0.10475280    -0.29390942
