44
conf 0 ff=MMFF E=94.543 Rg=5.25 smiles=Cc1ccc(COCc2ccc3c(c2)C(=O)c2ccccc2C3=O)cc1
C      7.12446297    -1.83098363    -0.04513460
C      6.02319718    -0.81855604    -0.15421747
C      6.03294570     0.32946471     0.64591921
C      5.02481201     1.28933531     0.52306354
C      3.99075972     1.11872461    -0.40566833
C      2.90844460     2.16005314    -0.55085072
C      3.99736340    -0.01953921    -1.22321089
C      5.00479189    -0.97862028    -1.09976371
O      1.61087091     1.56833011    -0.61079463
C      1.11952884     1.20377906     0.67541746
C     -0.18281939     0.47199651     0.48044402
C     -0.18246567    -0.86355197     0.05292864
C     -1.38468903    -1.54434153    -0.15011910
C     -2.60377567    -0.89190856     0.06627561
C     -3.87008148    -1.61895152    -0.15433659
O     -3.86000543    -2.79216728    -0.50880854
C     -5.14995621    -0.91405659     0.05878419
C     -6.35782619    -1.58942429    -0.15984047
C     -7.57263527    -0.93143063     0.03994514
C     -7.58523554     0.39893066     0.45782577
C     -6.38304544     1.07380730     0.67675034
C     -5.16254539     0.41566242     0.47645019
C     -3.89619137     1.13751491     0.71236132
O     -3.90810517     2.30114636     1.09737347
C     -2.61594970     0.43771335     0.48289750
C     -1.40858844     1.12051370     0.68656472
H      7.51320204    -1.87650141     0.97762156
H      7.94225243    -1.56889169    -0.72340300
H      6.76095802    -2.83238168    -0.29870561
H      6.82898493     0.48474683     1.37090959
H      5.05703812     2.17171344     1.15807154
H      3.07170380     2.69415562    -1.49363703
H      2.94462255     2.90475120     0.25344214
H      3.21035412    -0.16188602    -1.96183390
H      4.98884743    -1.85129101    -1.74879957
H      1.82622624     0.55147739     1.20198049
H      0.97007809     2.10388650     1.28330439
H      0.76093636    -1.37494956    -0.13342431
H     -1.36524231    -2.58050983    -0.48331599
H     -6.35603255    -2.62816533    -0.48605713
H     -8.50927226    -1.45768860    -0.13077303
H     -8.53175523     0.91198050     0.61356637
H     -6.40100124     2.11233456     1.00307938
H     -1.42516239     2.16377848     0.99940595
