44
conf 3 ff=MMFF E=94.559 Rg=5.25 smiles=Cc1ccc(COCc2ccc3c(c2)C(=O)c2ccccc2C3=O)cc1
C      7.08301455     1.73151223     0.83013743
C      6.03799164     0.75273531     0.38334972
C      5.97969794     0.33684704    -0.95154300
C      4.98776134    -0.55119470    -1.37604029
C      4.02595874    -1.02523695    -0.47540964
C      2.96123152    -1.99441364    -0.92678513
C      4.08386918    -0.60354419     0.85983378
C      5.07507260     0.28418380     1.28340766
O      1.66678878    -1.60910029    -0.46494946
C      1.09280170    -0.57351884    -1.25661672
C     -0.20022380    -0.15806744    -0.60455209
C     -0.18262720     0.65279881     0.53942735
C     -1.37481981     1.02722952     1.16273475
C     -2.60067994     0.58728042     0.65052767
C     -3.85610777     0.98561623     1.31837530
O     -3.83210491     1.71088587     2.30609563
C     -5.14216058     0.49937285     0.77984925
C     -6.33906782     0.85987479     1.41255513
C     -7.55965720     0.40570038     0.91004714
C     -7.58897734    -0.40711720    -0.22269745
C     -6.39776006    -0.76727175    -0.85510368
C     -5.17146132    -0.31306220    -0.35233746
C     -3.91691020    -0.69801452    -1.02930645
O     -3.94455986    -1.39728256    -2.03562295
C     -2.62950187    -0.22568915    -0.48078360
C     -1.43218825    -0.60114810    -1.10602686
H      8.00346186     1.61279659     0.24884386
H      6.71501998     2.75451809     0.70541276
H      7.34156588     1.57386646     1.88252962
H      6.71067708     0.70019748    -1.67059944
H      4.97247097    -0.86580984    -2.41701365
H      2.95078651    -2.11517456    -2.01677053
H      3.18704856    -2.97608273    -0.49536377
H      3.34650666    -0.96371063     1.57521785
H      5.09129538     0.60463633     2.32268500
H      0.91242071    -0.94184989    -2.27339422
H      1.75996712     0.29406980    -1.32254243
H      0.76712743     0.98712946     0.95470302
H     -1.34189756     1.65609490     2.05070111
H     -6.32421093     1.49423856     2.29729520
H     -8.48773990     0.68656961     1.40315652
H     -8.54000500    -0.76123895    -0.61451002
H     -6.42876332    -1.40204013    -1.73910467
H     -1.46111149    -1.24758626    -1.98228042
