44
conf 8 ff=MMFF E=94.664 Rg=4.89 smiles=Cc1ccc(COCc2ccc3c(c2)C(=O)c2ccccc2C3=O)cc1
C     -5.78777527    -2.75407332     0.40850425
C     -5.07713062    -1.48175836     0.05403929
C     -3.89840363    -1.51528073    -0.69828346
C     -3.25304858    -0.32952011    -1.05526971
C     -3.77270537     0.91224640    -0.66535781
C     -3.08310422     2.19508173    -1.06127556
C     -4.96777450     0.94432595     0.06429425
C     -5.61463032    -0.24251864     0.41918567
O     -1.66531560     2.10790112    -0.91887624
C     -1.24270328     2.25482059     0.43326938
C      0.23313974     1.95697248     0.48649963
C      1.17574544     2.99228002     0.53195954
C      2.54239955     2.70401232     0.55794748
C      2.98053227     1.37452655     0.52954694
C      4.42790360     1.08282568     0.55347813
O      5.24465214     1.99466529     0.61495378
C      4.87875996    -0.32232397     0.50386226
C      6.24968984    -0.61101081     0.51510969
C      6.68525093    -1.93645159     0.46916656
C      5.75609352    -2.97474530     0.41235473
C      4.38963945    -2.68953802     0.40140704
C      3.94997189    -1.36004091     0.44708085
C      2.50230206    -1.06873087     0.43646837
O      1.68726725    -1.98333113     0.39962725
C      2.05204207     0.33748180     0.47397070
C      0.68159024     0.62724306     0.45054745
H     -6.49586715    -3.02001508    -0.38231807
H     -5.07590615    -3.57610116     0.53792845
H     -6.33396445    -2.64667192     1.35156821
H     -3.47187459    -2.46560669    -1.01199293
H     -2.33460029    -0.37704166    -1.63808991
H     -3.29651481     2.38478698    -2.11912500
H     -3.46132319     3.05353908    -0.49310686
H     -5.40755177     1.89331434     0.36225306
H     -6.54329125    -0.19365675     0.98348954
H     -1.44443461     3.27741775     0.77311559
H     -1.77562208     1.56489350     1.09824561
H      0.85192068     4.03135851     0.53837565
H      3.26256987     3.51978018     0.59297748
H      6.98108823     0.19425729     0.55935424
H      7.75017222    -2.15832466     0.47765537
H      6.09507737    -4.00777898     0.37648428
H      3.67018527    -3.50551309     0.35706731
H     -0.04445183    -0.18369690     0.39339316
