44
conf 6 ff=MMFF E=94.559 Rg=5.25 smiles=Cc1ccc(COCc2ccc3c(c2)C(=O)c2ccccc2C3=O)cc1
C      7.12063642     1.33574966     1.28181750
C      6.04920545     0.44405850     0.72808428
C      6.01533313     0.13892633    -0.63721764
C      5.00010642    -0.66659582    -1.15990894
C      3.99085474    -1.16680761    -0.32797210
C      2.90031290    -2.04768642    -0.88605825
C      4.02458366    -0.85590745     1.03813836
C      5.03909493    -0.05059179     1.55986476
O      1.60964402    -1.64215604    -0.43101603
C      1.10593566    -0.52181845    -1.15195364
C     -0.18817686    -0.10166130    -0.50507708
C     -0.17223397     0.61339602     0.70113449
C     -1.36650218     0.99045282     1.31886330
C     -2.59318279     0.64901217     0.73807010
C     -3.85098894     1.04917740     1.40032783
O     -3.82734801     1.69121516     2.44407943
C     -5.13892524     0.66647308     0.78784161
C     -6.33880004     1.02911074     1.41366966
C     -7.56113648     0.67248537     0.84152876
C     -7.58922658    -0.04486722    -0.35398872
C     -6.39502861    -0.40692490    -0.97965086
C     -5.16699796    -0.05054678    -0.40708703
C     -3.90920202    -0.43660983    -1.07736977
O     -3.93477464    -1.05109492    -2.13763972
C     -2.62082927    -0.06863544    -0.45601384
C     -1.42142992    -0.44679457    -1.07560919
H      6.80109481     2.38108284     1.22991654
H      8.05310654     1.22198100     0.71898766
H      7.33865951     1.08332897     2.32488142
H      6.78359261     0.52491428    -1.30369422
H      5.00424450    -0.89625596    -2.22296245
H      3.07005411    -3.06983561    -0.52941987
H      2.91914621    -2.08060071    -1.98210752
H      3.25020136    -1.23813935     1.70103371
H      5.03619678     0.18497094     2.62172898
H      1.81138386     0.31720013    -1.12844231
H      0.94232941    -0.79931684    -2.19993555
H      0.77728911     0.86996136     1.16894511
H     -1.33491289     1.54407442     2.25563853
H     -6.32491502     1.58927754     2.34717213
H     -8.49154189     0.95480272     1.32940612
H     -8.54161676    -0.32295865    -0.80007642
H     -6.42507812    -0.96682187    -1.91290636
H     -1.45015798    -1.01902390    -2.00203717
