14
SMD(acetonitrile)-opt r2scan/def2-svp q=1 m=2
C -0.17884513 -1.24513877 -0.05114061
C 1.19351715 -1.22943559 0.07126283
C 1.88954375 -0.00003821 0.13329492
C 1.19355794 1.22937660 0.07124563
C -0.17880323 1.24509780 -0.05115599
C -0.89136048 -0.00000927 -0.11509261
N -2.21358660 0.00001857 -0.23350356
H -2.73814082 0.87542113 -0.27936838
H -2.73820576 -0.87534398 -0.27937023
H -0.74418942 2.17959763 -0.10107763
H 1.74793673 2.16985112 0.12072570
H 2.97829922 -0.00005631 0.23051410
H 1.74787446 -2.16992406 0.12075649
H -0.74425597 -2.17962801 -0.10105335
