27
bm_1_amino_4_hydroxy_9_10_anthraquinone conf 0 ff=MMFF E=60.567
N     -2.45006661    -2.50884360    -0.55850031
C     -2.31702093    -1.14656448    -0.23692614
C     -3.46547944    -0.34534884    -0.29670401
C     -3.38487461     1.03666979    -0.13648949
C     -2.14577905     1.63820051     0.04258576
O     -2.15299503     3.00031903     0.18087385
C     -0.97489143     0.86725556     0.06269646
C     -1.05711993    -0.52357962    -0.07909840
C      0.18670746    -1.33645505    -0.01062460
O      0.14487610    -2.56324584     0.02179234
C      1.49708581    -0.66105188     0.05266023
C      2.67464670    -1.41991258     0.01368942
C      3.91756998    -0.78826417     0.08451569
C      3.98902306     0.59945216     0.19760392
C      2.81767706     1.35703178     0.23995165
C      1.57032088     0.72318880     0.16633357
C      0.33783977     1.52574765     0.21574726
O      0.39305336     2.74260220     0.37366545
H     -3.31271652    -2.94227786    -0.24781733
H     -1.61924915    -3.05378974    -0.29512898
H     -4.43770386    -0.79710526    -0.48183510
H     -4.28527857     1.64487597    -0.17246761
H     -1.22360386     3.30355401     0.29705118
H      2.62855063    -2.50443405    -0.07144458
H      4.82985497    -1.38015479     0.05309106
H      4.95734019     1.09211550     0.25425893
H      2.88223299     2.44001480     0.33051978
