44
conf 4 ff=MMFF E=150.620 Rg=5.05 smiles=CC[n+]1ccc(-c2cc[n+](Cc3ccc(C)cc3)cc2)cc1
C      6.50472517     1.54439632     2.04185656
C      5.57746689     0.90354169     1.04896056
C      4.89419410    -0.27202853     1.37427671
C      4.06413786    -0.89286989     0.43815586
C      3.90912018    -0.34961316    -0.84592523
C      3.00054464    -1.00159332    -1.85336354
C      4.61456198     0.81674006    -1.17685186
C      5.44297413     1.43422192    -0.23736859
N      1.57666341    -0.87139256    -1.43647791
C      0.97505029     0.33922512    -1.48532510
C     -0.35602080     0.48860214    -1.09490125
C     -1.09391928    -0.61135775    -0.64328305
C     -2.50051235    -0.47187090    -0.21622280
C     -3.45915239     0.12750889    -1.04164967
C     -4.78321758     0.25209177    -0.61890770
N     -5.16278452    -0.19973129     0.59741039
C     -6.57802710    -0.05926128     1.02785061
C     -6.75565789     1.26459160     1.74345494
C     -4.26510607    -0.78328596     1.42279984
C     -2.93289051    -0.92953327     1.03408286
C     -0.43822838    -1.84768706    -0.61036698
C      0.89398123    -1.95773307    -1.01264676
H      7.51028666     1.12520436     1.93889476
H      6.15424974     1.37859747     3.06599562
H      6.55399147     2.62732388     1.88688566
H      5.01853147    -0.71541916     2.36173906
H      3.56192160    -1.81217052     0.73088213
H      3.08025525    -0.53944234    -2.84461644
H      3.24765186    -2.06310034    -1.96480281
H      4.54905081     1.25855244    -2.17014028
H      5.99696209     2.33036185    -0.51616310
H      1.56805248     1.18370713    -1.82791244
H     -0.79980875     1.48292299    -1.13193796
H     -3.19234550     0.49587786    -2.03165771
H     -5.54327826     0.71281058    -1.24508247
H     -7.21195931    -0.12386763     0.13723312
H     -6.82031698    -0.90513360     1.67980952
H     -7.79340680     1.38544416     2.06822855
H     -6.11086411     1.32501219     2.62606885
H     -6.50146262     2.10390141     1.08819148
H     -4.61935262    -1.12407907     2.39255615
H     -2.23543502    -1.39264009     1.73131839
H     -0.95821536    -2.74659708    -0.28069172
H      1.41758890    -2.91022797    -0.99312693
