44
conf 5 ff=MMFF E=150.620 Rg=5.05 smiles=CC[n+]1ccc(-c2cc[n+](Cc3ccc(C)cc3)cc2)cc1
C     -6.58129074     2.07113862    -1.03457893
C     -5.61841231     0.98549034    -0.64654385
C     -4.89802066     1.07147181     0.54856822
C     -4.03376618     0.04346192     0.93200560
C     -3.88099095    -1.09490670     0.12653052
C     -2.93619471    -2.19752911     0.52288335
C     -4.62313860    -1.18877078    -1.06005214
C     -5.48565361    -0.15813720    -1.43955860
N     -1.52359888    -1.73341405     0.43711163
C     -0.80793116    -1.53271655     1.56554627
C      0.51402943    -1.08912390     1.49936392
C      1.12519229    -0.84880603     0.26313972
C      2.52012276    -0.37336407     0.17096735
C      2.95234228     0.76157976     0.86720690
C      4.27320558     1.19942973     0.76276417
N      5.15995679     0.53340182    -0.01034027
C      6.56345171     1.01249192    -0.10305624
C      6.68388815     1.99318480    -1.25195433
C      4.78028004    -0.56846335    -0.69544451
C      3.46722949    -1.03485664    -0.61959342
C      0.35419672    -1.07488832    -0.88264506
C     -0.96535116    -1.51514239    -0.77558496
H     -7.57029433     1.86079281    -0.61611744
H     -6.24016253     3.04461863    -0.66695601
H     -6.66538539     2.14672766    -2.12379993
H     -5.01969770     1.94141703     1.19318319
H     -3.50298142     0.14751371     1.87565320
H     -3.14351147    -2.53368835     1.54478958
H     -3.01920269    -3.07155964    -0.13415659
H     -4.56007349    -2.06594334    -1.70248087
H     -6.06749159    -0.25446559    -2.35601343
H     -1.29712840    -1.72395211     2.51733939
H      1.06162859    -0.94458701     2.43014482
H      2.26300161     1.33170738     1.48914113
H      4.62679402     2.08306781     1.28831590
H      7.21092029     0.14122419    -0.24771004
H      6.82748769     1.47745435     0.85263648
H      7.71227024     2.35713721    -1.33547212
H      6.02584929     2.85554054    -1.10449763
H      6.40821809     1.52340599    -2.20154963
H      5.53133906    -1.06834088    -1.30213525
H      3.20029606    -1.93072588    -1.17919718
H      0.76234637    -0.89362983    -1.87639806
H     -1.58376856    -1.68524630    -1.65353288
