44
conf 7 ff=MMFF E=150.620 Rg=5.05 smiles=CC[n+]1ccc(-c2cc[n+](Cc3ccc(C)cc3)cc2)cc1
C     -6.53858404    -0.54894557     2.44038564
C     -5.59816545    -0.31826923     1.29201781
C     -4.82767449    -1.36911726     0.78536843
C     -3.98402137    -1.16719040    -0.30927436
C     -3.90254896     0.09230047    -0.92172785
C     -2.98074013     0.32278430    -2.08904799
C     -4.69461856     1.13835153    -0.42580561
C     -5.53626811     0.93182697     0.66924541
N     -1.55770748     0.24795499    -1.65599725
C     -0.79111355    -0.79998174    -2.03013856
C      0.54157946    -0.88665990    -1.62377133
C      1.11078576     0.11255360    -0.82558529
C      2.51645369     0.03719637    -0.37977598
C      3.01473613    -1.09441122     0.27660293
C      4.34472097    -1.14486221     0.69599564
N      5.17667930    -0.10285184     0.47304529
C      6.59109101    -0.17914069     0.92198474
C      6.69960372     0.36344709     2.33265438
C      4.73241761     1.00586829    -0.16020135
C      3.40811915     1.09545148    -0.59099700
C      0.28735757     1.18496383    -0.46465165
C     -1.04119331     1.23433911    -0.88775532
H     -6.66452123     0.36468522     3.03081182
H     -6.14974897    -1.31980171     3.11400824
H     -7.51624170    -0.86636835     2.06500849
H     -4.89371462    -2.35734103     1.23946302
H     -3.41241781    -2.01624337    -0.67720970
H     -3.11971866     1.31333369    -2.53851287
H     -3.15834049    -0.42166322    -2.87297318
H     -4.68726881     2.12510527    -0.88666851
H     -6.15744381     1.75074873     1.03147870
H     -1.24819309    -1.56724782    -2.64995264
H      1.13054215    -1.74315551    -1.95035152
H      2.37061477    -1.94788712     0.48577063
H      4.74909312    -2.01055419     1.21474895
H      7.20185029     0.39855429     0.22023284
H      6.90873878    -1.22573127     0.86752932
H      6.07814050    -0.21299867     3.02539044
H      7.73581877     0.31503244     2.68040305
H      6.37035783     1.40639581     2.38007956
H      5.44118079     1.81550137    -0.31577811
H      3.08851003     2.00128025    -1.10511544
H      0.66150489     1.98959419     0.16747318
H     -1.69965163     2.05315303    -0.60819210
