44
conf 9 ff=MMFF E=150.621 Rg=5.10 smiles=CC[n+]1ccc(-c2cc[n+](Cc3ccc(C)cc3)cc2)cc1
C      6.84833656    -0.40651472    -1.81069200
C      5.78444069    -0.26223240    -0.76014408
C      5.00814767     0.89858867    -0.69292132
C      4.04713982     1.05287568     0.30878900
C      3.85131549     0.04762212     1.26750741
C      2.80366313     0.19775574     2.33773915
C      4.64817400    -1.10538892     1.21139515
C      5.60744477    -1.25540400     0.20766939
N      1.43808469     0.14152307     1.74595056
C      0.96588475    -1.03243551     1.26765265
C     -0.30774114    -1.11020457     0.70345196
C     -1.12067289     0.02580104     0.61981804
C     -2.46742281    -0.03395709     0.01729494
C     -3.41834341    -0.96846121     0.44394208
C     -4.68539979    -1.01020111    -0.13932531
N     -5.01620431    -0.15062909    -1.12894590
C     -6.36788599    -0.21711788    -1.74251028
C     -7.30928377     0.69485341    -0.98205833
C     -4.12364126     0.76434239    -1.56915965
C     -2.84816437     0.83968431    -1.00810697
C     -0.59880953     1.22097453     1.12848946
C      0.67919161     1.25805959     1.68890277
H      6.56335793     0.11789088    -2.72882622
H      7.79330848     0.00674841    -1.44500065
H      6.99859296    -1.45941501    -2.07147904
H      5.16110109     1.69555665    -1.41996003
H      3.47485354     1.97757839     0.32969753
H      2.92776168     1.14860091     2.86761764
H      2.85485970    -0.60393651     3.08419181
H      4.55288608    -1.89918338     1.95094708
H      6.22965283    -2.14994169     0.18843874
H      1.61657725    -1.90120182     1.33102543
H     -0.64545260    -2.06980557     0.31344082
H     -3.19161134    -1.66992820     1.24615155
H     -5.44053398    -1.72329411     0.18211848
H     -6.27933798     0.08075394    -2.79258968
H     -6.70404910    -1.25889080    -1.71173888
H     -8.31105581     0.65868541    -1.42040785
H     -6.96041844     1.73215245    -1.00903629
H     -7.38373808     0.39655905     0.06860761
H     -4.43800372     1.43123263    -2.36821038
H     -2.15220087     1.58263022    -1.39631938
H     -1.18388503     2.13982128     1.10569626
H      1.09908148     2.17785281     2.08823008
