44
conf 8 ff=MMFF E=150.620 Rg=5.05 smiles=CC[n+]1ccc(-c2cc[n+](Cc3ccc(C)cc3)cc2)cc1
C     -6.62343680     1.50075377     1.38974166
C     -5.63840642     0.64518227     0.64539839
C     -5.56058888     0.70706984    -0.74904758
C     -4.67617388    -0.11735191    -1.44783978
C     -3.85629932    -1.02507477    -0.76127118
C     -2.88884503    -1.89778820    -1.51487603
C     -3.95328345    -1.10140815     0.63615308
C     -4.83968603    -0.27517031     1.33069438
N     -1.48440122    -1.49876872    -1.22077548
C     -0.69538910    -2.30205133    -0.47376324
C      0.61985392    -1.93550346    -0.18310112
C      1.14817660    -0.73177004    -0.66413241
C      2.53452626    -0.32226460    -0.36314636
C      3.01267498    -0.27439342     0.95167052
C      4.32433559     0.12106700     1.21706887
N      5.15777055     0.46202394     0.20871021
C      6.55273993     0.87419146     0.51219567
C      6.59878085     2.37464553     0.71894537
C      4.73276695     0.42547611    -1.07413840
C      3.42699021     0.03917283    -1.37923645
C      0.30282942     0.06945403    -1.43987510
C     -1.00732745    -0.32957945    -1.70587410
H     -6.25755650     1.73143153     2.39577460
H     -7.58289383     0.98097386     1.47191499
H     -6.77920158     2.45431809     0.87435190
H     -6.20247915     1.39489779    -1.29912067
H     -4.65746191    -0.04325554    -2.53424571
H     -3.01644432    -1.81733379    -2.60104875
H     -3.02842142    -2.95028753    -1.24461717
H     -3.36053058    -1.81083608     1.20919956
H     -4.91674137    -0.35824391     2.41433906
H     -1.12080142    -3.23318978    -0.10799741
H      1.22803470    -2.61165457     0.41693342
H      2.36618718    -0.52896554     1.79090019
H      4.71260707     0.17316138     2.23126215
H      7.18829463     0.56314869    -0.32360249
H      6.87940842     0.33415750     1.40712257
H      5.95291849     2.67797762     1.54916966
H      6.26082015     2.90630087    -0.17634323
H      7.61992539     2.69670167     0.94376585
H      5.44189608     0.70831428    -1.84821416
H      3.12290617     0.01388311    -2.42513524
H      0.64464079     1.02608317    -1.83359118
H     -1.68271468     0.28450478    -2.29657213
