44
conf 3 ff=MMFF E=150.620 Rg=5.05 smiles=CC[n+]1ccc(-c2cc[n+](Cc3ccc(C)cc3)cc2)cc1
C     -6.65208354     0.25171561    -2.09594744
C     -5.65090230     0.01104690    -1.00230389
C     -5.56808491     0.88565151     0.08516121
C     -4.66819452     0.64212267     1.12490128
C     -3.83748973    -0.48779156     1.09699238
C     -2.85361666    -0.73708961     2.20845685
C     -3.93923732    -1.37597446     0.01588412
C     -4.84112792    -1.12849145    -1.02147284
N     -1.45669584    -0.57482022     1.71809073
C     -0.99580731     0.65979230     1.41274836
C      0.30697804     0.83773355     0.94629072
C      1.16156873    -0.25842173     0.78353762
C      2.54029064    -0.09189669     0.28180219
C      3.43058702     0.81017812     0.87611497
C      4.72905283     0.95478251     0.38575424
N      5.14889091     0.22953158    -0.67508967
C      6.53611003     0.39693031    -1.18058255
C      6.55778721     1.48452421    -2.23551631
C      4.31736049    -0.65086402    -1.27599744
C      3.01301517    -0.82639578    -0.81213832
C      0.64996243    -1.51901827     1.11319791
C     -0.65833299    -1.65624489     1.58037693
H     -6.82146869     1.32391061    -2.24050378
H     -6.29331649    -0.15165242    -3.04871413
H     -7.60332708    -0.22692943    -1.84391873
H     -6.21805735     1.75924702     0.13064078
H     -4.64596749     1.34398724     1.95737452
H     -2.97808370    -1.74731652     2.61370545
H     -2.97798461    -0.03185856     3.03894173
H     -3.33816247    -2.28105356    -0.03473588
H     -4.92155488    -1.83654627    -1.84568848
H     -1.67824136     1.49738939     1.53476066
H      0.63549311     1.84552780     0.69446329
H      3.13066606     1.40557832     1.73782298
H      5.43637629     1.64836749     0.83373244
H      6.86804473    -0.56447598    -1.58649298
H      7.17945960     0.64750637    -0.33055035
H      5.90421172     1.23095231    -3.07632811
H      6.21476229     2.43929325    -1.82421388
H      7.57291621     1.62183546    -2.61979086
H      4.70117247    -1.20498605    -2.12904611
H      2.36767089    -1.53508469    -1.33014910
H      1.26612411    -2.41288574     1.02121338
H     -1.07076381    -2.62780663     1.84068274
