44
conf 1 ff=MMFF E=150.620 Rg=5.05 smiles=CC[n+]1ccc(-c2cc[n+](Cc3ccc(C)cc3)cc2)cc1
C      6.51065860     1.73724799     1.87943169
C      5.58349569     0.93224571     1.01416738
C      5.48860634     1.19494242    -0.35563925
C      4.65994845     0.42116931    -1.17097476
C      3.91441797    -0.63603892    -0.62870229
C      3.00588541    -1.45531516    -1.50555450
C      4.02947612    -0.91200243     0.74192972
C      4.85995203    -0.13566746     1.55333461
N      1.57895026    -1.20745854    -1.15827696
C      0.85654392    -2.16786653    -0.54055681
C     -0.47912517    -1.94504189    -0.20134760
C     -1.09714692    -0.72485279    -0.49919209
C     -2.50675647    -0.46631344    -0.14352592
C     -2.97591844    -0.65020055     1.16251362
C     -4.31027350    -0.39465700     1.48108430
N     -5.17458915     0.03211508     0.53321795
C     -6.59287413     0.29255305     0.89177239
C     -6.74459620     1.73800730     1.32056840
C     -4.75901668     0.21849396    -0.73965672
C     -3.43152833    -0.02252120    -1.09611297
C     -0.31862123     0.24187969    -1.14548555
C      1.01451751    -0.01701927    -1.46517793
H      6.59381480     2.76512309     1.51099589
H      6.13709657     1.79007324     2.90746282
H      7.50545155     1.28137194     1.88659011
H      6.07383719     2.00196666    -0.79601004
H      4.62592997     0.65442305    -2.23425315
H      3.22342493    -2.52330055    -1.39437136
H      3.11779851    -1.20560839    -2.56746104
H      3.49501092    -1.74014907     1.20186821
H      4.95279778    -0.37309906     2.61264819
H      1.35122484    -3.10957880    -0.31636806
H     -1.03162285    -2.74514550     0.29027845
H     -2.30572068    -0.97996041     1.95569695
H     -4.69261676    -0.52291631     2.49074684
H     -7.21161295     0.06480070     0.01739915
H     -6.87231978    -0.39724922     1.69509768
H     -7.78422910     1.94831126     1.58879068
H     -6.11500985     1.95974540     2.18825159
H     -6.45335159     2.42042546     0.51564247
H     -5.49318346     0.56189616    -1.46431073
H     -3.13537246     0.13084869    -2.13330596
H     -0.73196339     1.21897495    -1.39332122
H      1.63860972     0.72534738    -1.95667909
