44
conf 6 ff=MMFF E=150.620 Rg=5.05 smiles=CC[n+]1ccc(-c2cc[n+](Cc3ccc(C)cc3)cc2)cc1
C      6.62046625     1.92115564    -0.97360015
C      5.63066435     0.83568009    -0.65995100
C      5.42460787    -0.21450693    -1.55941124
C      4.53686836    -1.24792293    -1.25258237
C      3.84259766    -1.25120251    -0.03375618
C      2.87063908    -2.35512831     0.28585448
C      4.06887297    -0.20821564     0.87674173
C      4.95808296     0.82294797     0.56565713
N      1.47501278    -1.83547986     0.30487779
C      0.80954056    -1.72719067     1.47588266
C     -0.49569841    -1.23322881     1.50862484
C     -1.14194533    -0.84569899     0.32892229
C     -2.51978189    -0.31494553     0.34200831
C     -3.52045213    -0.85878704    -0.47192028
C     -4.81630319    -0.34157087    -0.44682961
N     -5.12728019     0.69712074     0.36068111
C     -6.51357572     1.23184110     0.37397076
C     -6.63819556     2.32853553    -0.66428133
C     -4.18732825     1.24935414     1.16016462
C     -2.88151223     0.75731362     1.16606991
C     -0.42285313    -0.97932129    -0.86414497
C      0.88162387    -1.47405475    -0.85580262
H      7.61469664     1.63486691    -0.61718940
H      6.66921202     2.10473295    -2.05207061
H      6.33016947     2.86321712    -0.49670143
H      5.96854881    -0.23600288    -2.50353299
H      4.41629470    -2.05125882    -1.97801000
H      3.10185374    -2.80221339     1.25896004
H      2.89549649    -3.15890952    -0.45969403
H      3.57722767    -0.18366016     1.84663648
H      5.13699290     1.61681753     1.29015566
H      1.32549070    -2.03242011     2.38275684
H     -1.00278900    -1.16626523     2.47064650
H     -3.30938230    -1.70156458    -1.12932680
H     -5.60814973    -0.75036079    -1.06966973
H     -7.19930144     0.40307158     0.16862391
H     -6.72386368     1.60549737     1.38164819
H     -7.65404018     2.73479193    -0.66870664
H     -6.41628913     1.94902783    -1.66685715
H     -5.94213534     3.14779075    -0.45752316
H     -4.48664072     2.08648455     1.78601299
H     -2.14799374     1.23650280     1.81366834
H     -0.85983040    -0.68254298    -1.81701696
H      1.46038183    -1.57429754    -1.77076622
