44
conf 0 ff=MMFF E=150.620 Rg=5.05 smiles=CC[n+]1ccc(-c2cc[n+](Cc3ccc(C)cc3)cc2)cc1
C     -6.40071761    -0.50027094     2.48456455
C     -5.52469417    -0.31174957     1.27900031
C     -5.50833927     0.91092792     0.60137656
C     -4.72779949     1.07684937    -0.54465982
C     -3.95257287     0.01667647    -1.03723164
C     -3.09581312     0.20412450    -2.26048114
C     -3.98901294    -1.21601633    -0.36852468
C     -4.77159286    -1.37736195     0.77703240
N     -1.65130968     0.15925056    -1.90051278
C     -1.10525748     1.18176900    -1.20323198
C      0.24402605     1.16100300    -0.84897935
C      1.05818703     0.08050501    -1.20679883
C      2.48587648     0.03527831    -0.83263142
C      3.35463065     1.09050581    -1.13484586
C      4.70038051     1.02983631    -0.77062758
N      5.18814086    -0.04726289    -0.11519536
C      6.62466232    -0.09312137     0.26193463
C      6.80086825     0.51053124     1.64062054
C      4.37947395    -1.08531287     0.19485778
C      3.02903828    -1.06329736    -0.15604372
C      0.45811154    -0.95647527    -1.93074932
C     -0.89481229    -0.89775210    -2.26968174
H     -7.39353066    -0.84136228     2.17560023
H     -5.96893355    -1.23827562     3.16873403
H     -6.50468212     0.43688882     3.04143686
H     -6.11771816     1.73976817     0.96108718
H     -4.75467809     2.04297391    -1.04665982
H     -3.26830943     1.17332518    -2.74361545
H     -3.30674319    -0.57469893    -3.00157539
H     -3.42919232    -2.07561633    -0.73007497
H     -4.80366628    -2.34570467     1.27545577
H     -1.75639437     2.00666517    -0.92442194
H      0.64259449     1.99496113    -0.27222414
H      2.99958466     1.97099845    -1.66932985
H      5.39188354     1.83763184    -0.99720634
H      7.19229313     0.45857821    -0.49480954
H      6.94956164    -1.13858407     0.23555547
H      6.22198103    -0.04032940     2.38886147
H      7.85417264     0.48515954     1.93542780
H      6.46414766     1.55199315     1.66072112
H      4.81899232    -1.92483087     0.72785403
H      2.40532676    -1.91209234     0.12247727
H      1.03777349    -1.82159310    -2.25118603
H     -1.37593732    -1.69449283    -2.83138693
