44
conf 2 ff=MMFF E=150.620 Rg=5.05 smiles=CC[n+]1ccc(-c2cc[n+](Cc3ccc(C)cc3)cc2)cc1
C      6.40416056    -2.12310741     1.59427303
C      5.52538130    -1.09237479     0.94490446
C      5.44288039     0.19967905     1.47232472
C      4.66038974     1.17284168     0.84715867
C      3.94970745     0.87031931    -0.32373134
C      3.09032546     1.91477976    -0.98409062
C      4.05288442    -0.42040133    -0.86356754
C      4.83714973    -1.39026995    -0.23503921
N      1.64880356     1.56042575    -0.86315861
C      1.04142652     1.63810301     0.34306771
C     -0.30638127     1.30627116     0.48376191
C     -1.05551394     0.88471342    -0.62052940
C     -2.48030894     0.51959430    -0.49020051
C     -2.96348298    -0.71176783    -0.94842098
C     -4.31236007    -1.04178618    -0.81090830
N     -5.17733745    -0.17674502    -0.23544744
C     -6.61094906    -0.54481634    -0.10427879
C     -6.82895148    -1.24906025     1.21962663
C     -4.74835544     1.02293889     0.21664772
C     -3.40629234     1.38735252     0.10067573
C     -0.39323619     0.82052297    -1.85210973
C      0.95595371     1.16422694    -1.95348502
H      6.01120451    -3.13151780     1.42732814
H      7.41636732    -2.06427320     1.18261794
H      6.45185142    -1.96842651     2.67731118
H      6.00193630     0.45610337     2.37200032
H      4.63474938     2.16895000     1.28673985
H      3.34944762     2.01299104    -2.04403798
H      3.20980448     2.90268093    -0.52333144
H      3.54508098    -0.69304335    -1.78597708
H      4.92179350    -2.38312245    -0.67575504
H      1.64284141     1.95647885     1.19106984
H     -0.75508754     1.36480771     1.47483641
H     -2.29380438    -1.43977355    -1.40513638
H     -4.70608729    -1.99599255    -1.15227330
H     -6.87543089    -1.18746870    -0.95061633
H     -7.20500140     0.37241638    -0.17511520
H     -6.22369864    -2.15880467     1.28633234
H     -6.55236775    -0.60363942     2.05947776
H     -7.88070118    -1.52803200     1.33367617
H     -5.48365599     1.68267484     0.67067190
H     -3.09923113     2.36566170     0.46895579
H     -0.92077312     0.51176458    -2.75404523
H      1.48486870     1.11981305    -2.90220275
