41
viologen/ox2 q=2 m=1 E=-22993.298455eV model=uma-s-1p1
C        6.18546257       0.70916665       2.03821120       0.00671184       0.00242084       0.01023153
C        5.15768559       0.28872192       1.02906441       0.00273200       0.00603206       0.01535977
C        4.97022047      -1.05444639       0.71487456       0.00765399       0.00549108      -0.00041989
C        4.05864901      -1.44017616      -0.25605651       0.00205588      -0.00111464       0.00136629
C        3.31472217      -0.48179127      -0.93231848       0.00332546      -0.00472191      -0.00542300
C        2.34437329      -0.88843513      -1.99828863       0.00125669       0.00102265      -0.00441619
C        3.48642185       0.86430712      -0.61970797       0.00062860      -0.00014796      -0.00104591
C        4.39384149       1.24171553       0.35219944       0.01046935      -0.00704530      -0.00562686
N        0.92639226      -0.66318028      -1.54084113       0.01328181      -0.00092894      -0.00160786
C        0.18989075       0.31522075      -2.07932625       0.00116436      -0.01107648      -0.00696069
C       -1.09103782       0.56323046      -1.63390760       0.00631067       0.00891189       0.00991556
C       -1.62621196      -0.22633174      -0.62244197      -0.00736037      -0.00860482      -0.01328973
C       -3.00919908       0.01116766      -0.12968723      -0.00440349       0.00250382       0.01225494
C       -3.92647872      -1.03282017      -0.03990416      -0.00695872      -0.00664706       0.00571445
C       -5.20072856      -0.78025001       0.41655755       0.00123717       0.00856218       0.00707910
N       -5.56618007       0.45691331       0.78983857      -0.01104255      -0.00052639      -0.00555758
C       -6.95409471       0.70697152       1.24898744      -0.00930762       0.00025084       0.00110703
C       -4.69884960       1.47976247       0.71592117      -0.00048016      -0.00025533      -0.00133761
C       -3.41689647       1.28657184       0.25424452      -0.00718047      -0.00042583      -0.00048386
C       -0.83889308      -1.24062273      -0.08030576       0.00763009       0.00701292       0.00833938
C        0.44118973      -1.42592815      -0.54948776       0.00051545       0.00428579      -0.01586490
H        5.89675452       1.63245119       2.53783036      -0.00223696      -0.00389511       0.00681663
H        6.34529073      -0.06118784       2.79040543      -0.00956810      -0.00297718       0.00309609
H        7.14247135       0.88893349       1.54435010      -0.00190281       0.00079265      -0.00566809
H        5.55589841      -1.80832856       1.22522128       0.00295392       0.00224937       0.00398406
H        3.95130651      -2.49020352      -0.50475664       0.00133959      -0.01119549      -0.00151319
H        2.45875195      -0.31251121      -2.91465743      -0.01393255       0.00519407       0.00300098
H        2.42690224      -1.94597676      -2.24368082       0.00175068       0.00444320      -0.00103706
H        2.92439258       1.62638229      -1.15099979       0.01337095       0.01138112      -0.00400210
H        4.53104771       2.29156108       0.57957518       0.00019686      -0.00782413       0.00027058
H        0.65058660       0.88841448      -2.87123641      -0.01182298      -0.00548331      -0.00370086
H       -1.65823485       1.35695095      -2.09920831      -0.01720366       0.00103540      -0.00106832
H       -3.67221114      -2.03977171      -0.34044343       0.01274009       0.00223901       0.00797581
H       -5.95636169      -1.54983040       0.49206960       0.01356432       0.00232680       0.00579694
H       -7.34157769      -0.19648769       1.70852522       0.00346852      -0.00628406       0.00091001
H       -7.56441502       0.98509785       0.39280050       0.00054907       0.00055008      -0.00472178
H       -6.94342394       1.50998338       1.97923023       0.00603440       0.00066829      -0.00043167
H       -5.06237491       2.44509189       1.03938728       0.00111465      -0.00266614      -0.00244171
H       -2.74184795       2.13023166       0.22265118       0.00418891       0.00560622      -0.00594990
H       -1.19737999      -1.86959189       0.72281607      -0.00755596      -0.00594560      -0.00617040
H        1.11414559      -2.17097619      -0.14658705      -0.01528914       0.00478560      -0.00448013
