28
SMD(acetonitrile)-opt r2scan/def2-svp q=1 m=2
C 5.00384250 -0.04359473 0.21007131
N 3.54802221 -0.04093575 0.11486893
C 2.85996584 -1.14299217 -0.31093864
C 1.49077566 -1.15326699 -0.38223651
C 0.71521084 -0.00843824 -0.01128652
C -0.71842862 0.00928839 -0.07714792
C -1.48303072 -1.11881233 -0.51843414
C -2.85074256 -1.07560313 -0.57446504
N -3.55085031 0.04497117 -0.21337987
C -5.00860795 0.03339459 -0.27076028
C -2.86334534 1.14527233 0.21800876
C -1.49421933 1.15448766 0.29217607
C 1.48007974 1.11972472 0.42938666
C 2.84804748 1.07784407 0.48181872
H 5.39091813 -0.97333049 -0.22205901
H 5.41376621 0.81393968 -0.34227074
H 5.31326939 0.02539308 1.26397255
H 3.46634109 -2.00677186 -0.59031053
H 1.02009836 -2.07154469 -0.73538445
H -1.00254624 -2.04867961 -0.82544819
H -3.45188388 -1.92419062 -0.90787169
H -5.40995203 -0.67296171 0.47168628
H -5.38560390 1.03969726 -0.05595065
H -5.33814783 -0.27289382 -1.27375881
H -3.46993822 2.00910084 0.49678018
H -1.02349576 2.07338019 0.64371763
H 0.99958028 2.04937226 0.73716251
H 3.44940295 1.92645049 0.81481299
