26
conf 1 ff=MMFF E=33.135 Rg=3.63 smiles=COc1ccc(C2=CC(=O)C=CC2=O)cc1
C     -4.80245357     0.83447308    -0.17532386
O     -3.97358168     0.08230658     0.70157862
C     -2.63406444     0.07026287     0.42900341
C     -1.86771899    -0.70728167     1.29865869
C     -0.48248402    -0.80785952     1.13689542
C      0.16316686    -0.12561082     0.09958189
C      1.62793546    -0.22167428    -0.06381116
C      2.35925038     0.90363945    -0.10897452
C      3.82547482     0.89032511    -0.26038174
O      4.46765615     1.93042574    -0.31172078
C      4.48934252    -0.41993103    -0.34992993
C      3.78426013    -1.55168190    -0.29684055
C      2.31336502    -1.54848801    -0.14811484
O      1.71345861    -2.61581178    -0.10112600
C     -0.61298750     0.64937861    -0.77556753
C     -2.00102283     0.74810206    -0.61149996
H     -4.75293019     0.44457662    -1.19741013
H     -5.83550252     0.73131810     0.17050904
H     -4.54577856     1.89852068    -0.14459510
H     -2.35353908    -1.24657115     2.10854911
H      0.08084022    -1.43161752     1.82808988
H      1.91872641     1.89190926    -0.02910788
H      5.56702461    -0.41331575    -0.45919226
H      4.25606605    -2.52524768    -0.36051505
H     -0.14930687     1.18035872    -1.60454979
H     -2.55519699     1.35949423    -1.31583056
