26
conf 0 ff=MMFF E=32.852 Rg=3.63 smiles=COc1ccc(C2=CC(=O)C=CC2=O)cc1
C      4.84560151     0.47976102    -0.14718785
O      3.98966451    -0.65356155    -0.07336353
C      2.64456366    -0.41072224    -0.04881969
C      1.84718526    -1.55068966     0.06394543
C      0.45316263    -1.44761704     0.10159695
C     -0.17053002    -0.19490576     0.02045462
C     -1.64294491    -0.07317592     0.05017945
C     -2.38062132    -0.79392121    -0.81004254
C     -3.85250497    -0.72182080    -0.84719542
O     -4.50152032    -1.39390400    -1.63705046
C     -4.51419599     0.18715816     0.10206742
C     -3.80204551     0.92171732     0.95874854
C     -2.32548155     0.86080868     0.99918121
O     -1.71881573     1.56710063     1.79594726
C      0.63679217     0.94518965    -0.08831763
C      2.03350216     0.83954122    -0.12348143
H      5.87873653     0.11914111    -0.14215459
H      4.71587639     1.13062637     0.72384737
H      4.69007591     1.03112377    -1.08037324
H      2.31651761    -2.52960755     0.12929186
H     -0.13240120    -2.35836237     0.20523107
H     -1.94026316    -1.46885505    -1.53656472
H     -5.59608412     0.22633894     0.06515122
H     -4.27214000     1.59754612     1.66353895
H      0.18820088     1.93592564    -0.13942763
H      2.60966960     1.75516454    -0.20520259
