24
SMD(acetonitrile)-opt r2scan/def2-svp q=0 m=1
O -0.12787658 2.58112824 0.80446775
C -0.07010083 1.41250340 0.44055219
C 1.23601340 0.74384748 0.18848993
C 2.42047111 1.47166511 0.37434200
C 3.65830063 0.87057150 0.14538162
C 3.72421878 -0.46612836 -0.27267953
C 2.55200568 -1.19876008 -0.46025127
C 1.30262026 -0.60355692 -0.23230563
C 0.06975146 -1.41180765 -0.44036271
O 0.12770808 -2.58042486 -0.80429428
C -1.23619897 -0.74308171 -0.18827425
C -2.42011856 -1.47168038 -0.37437817
C -3.65807090 -0.87085809 -0.14547957
C -3.72427732 0.46583055 0.27259645
C -2.55254252 1.19916631 0.46039147
C -1.30299837 0.60431307 0.23253045
H 2.34879877 2.51258969 0.70046990
H 4.57866033 1.44326962 0.29227056
H 4.69591386 -0.93547079 -0.45206453
H 2.58290521 -2.24192002 -0.78571771
H -2.34798954 -2.51258743 -0.70052149
H -4.57827974 -1.44377703 -0.29243536
H -4.69617893 0.93476882 0.45188133
H -2.58390018 2.24231394 0.78587603
