26
bm_n_2_methoxyethyl_phthalimide conf 7 ff=MMFF E=8.498
C      4.77019700     0.31892076     0.33095374
O      3.80818133    -0.57531940    -0.21304875
C      2.47540769    -0.11313800     0.01150975
C      1.49225425    -1.11354554    -0.59419995
N      0.11365906    -0.70788070    -0.40356055
C     -0.56033861     0.12759620    -1.25119830
O     -0.17856640     0.65044043    -2.28015797
C     -1.88416148     0.33177135    -0.66568621
C     -2.96280304     1.06319228    -1.12258279
C     -4.10894110     1.07829212    -0.32109584
C     -4.14676241     0.37518130     0.90156487
C     -3.03910403    -0.35527171     1.34402745
C     -1.92124455    -0.35761684     0.53311220
C     -0.62107124    -1.00144886     0.71213356
O     -0.30162033    -1.63718417     1.69786475
H      4.68882760     1.30262937    -0.14135281
H      4.64072278     0.40829781     1.41383185
H      5.76663309    -0.08364041     0.13027681
H      2.34577800     0.87193909    -0.45240888
H      2.29809527    -0.01453827     1.08911797
H      1.64183165    -2.09891430    -0.13751015
H      1.68915866    -1.21906976    -1.66750506
H     -2.91848258     1.60216372    -2.06346424
H     -4.98408507     1.64080365    -0.64244591
H     -5.05060696     0.40414320     1.50802046
H     -3.05295859    -0.89780331     2.28380401
