26
bm_n_2_methoxyethyl_phthalimide conf 5 ff=MMFF E=8.317
C      3.54022614     0.94778838    -0.33242370
O      2.67563107    -0.07385915    -0.81155884
C      2.56740172    -1.19014383     0.07566108
C      1.66898749    -0.91102566     1.28734527
N      0.32889155    -0.52125594     0.89073363
C     -0.60666553    -1.39872718     0.41616127
O     -0.53520066    -2.60781925     0.30445910
C     -1.77086679    -0.59962982     0.03931135
C     -2.98989467    -0.98391220    -0.48383616
C     -3.91801665     0.02820024    -0.74931091
C     -3.60872651     1.38015521    -0.49016470
C     -2.36592375     1.74337072     0.03887208
C     -1.46710088     0.72598226     0.29296316
C     -0.10984411     0.77353325     0.83467507
O      0.45735301     1.79751754     1.16587335
H      3.16026579     1.38839831     0.59222494
H      4.54819219     0.55262565    -0.17416711
H      3.59178562     1.73379701    -1.09077932
H      2.14484151    -2.01315391    -0.51096210
H      3.56499319    -1.50750460     0.40091004
H      2.09415621    -0.11656301     1.90820780
H      1.59485385    -1.82062471     1.89365546
H     -3.21282105    -2.02745982    -0.68066770
H     -4.89172751    -0.22841627    -1.16326344
H     -4.34767899     2.14964247    -0.70729972
H     -2.11311223     2.77908430     0.24094169
