26
bm_n_2_methoxyethyl_phthalimide conf 1 ff=MMFF E=7.865
C     -3.73620635     1.13712794     0.79967995
O     -2.76139602     0.10973777     0.68260756
C     -2.66288942    -0.37447093    -0.65879726
C     -1.59137237    -1.46563690    -0.73546772
N     -0.26285894    -0.95269462    -0.45007895
C      0.44009246    -1.22398791     0.69209466
O      0.15968077    -1.95182774     1.62508625
C      1.69067635    -0.47251809     0.59445017
C      2.75409766    -0.38644866     1.47165067
C      3.83036538     0.42288812     1.09359235
C      3.81804915     1.11596750    -0.13519397
C      2.72925555     1.01155587    -1.00691860
C      1.67935062     0.20648653    -0.61039191
C      0.41933567    -0.10696967    -1.28054252
O      0.09114778     0.32998547    -2.36748368
H     -4.72454032     0.76164358     0.51768425
H     -3.46587208     1.99419195     0.17541404
H     -3.77034144     1.46214418     1.84293822
H     -2.42251103     0.45733862    -1.33023129
H     -3.62872259    -0.79829874    -0.95676949
H     -1.82089448    -2.26531991    -0.02314144
H     -1.57673372    -1.88454738    -1.74758216
H      2.74894661    -0.92565330     2.41341105
H      4.68942756     0.52047986     1.75524096
H      4.66802390     1.73990713    -0.40634464
H      2.70588931     1.53891932    -1.95490648
