26
bm_n_2_methoxyethyl_phthalimide conf 9 ff=MMFF E=9.937
C     -4.51318558    -0.64886184    -0.09995441
O     -3.84581894     0.16418495     0.85730238
C     -2.43285219    -0.04687915     0.87832877
C     -1.72087510     0.76420834    -0.20714627
N     -0.28765041     0.54824289    -0.19258431
C      0.32510496    -0.51068096    -0.80447919
O     -0.17113964    -1.40674068    -1.45975043
C      1.74976724    -0.39945988    -0.49700892
C      2.81396772    -1.19113181    -0.88139831
C      4.08024112    -0.83056754    -0.40938352
C      4.24853546     0.29409656     0.42584418
C      3.15351249     1.07792592     0.80371036
C      1.91460799     0.70338772     0.32214313
C      0.59520075     1.29597694     0.53652817
O      0.38311148     2.25460299     1.25303815
H     -5.58543535    -0.44590578    -0.03148722
H     -4.18238968    -0.41306958    -1.11477935
H     -4.34714418    -1.70887953     0.11480564
H     -2.07619847     0.27998125     1.86175300
H     -2.20361454    -1.11674918     0.80118579
H     -1.92850759     1.83088134    -0.06378278
H     -2.10034579     0.49030476    -1.19714912
H      2.66976754    -2.05555089    -1.52139265
H      4.94884528    -1.42537796    -0.68745313
H      5.24468194     0.55261360     0.78147231
H      3.26781348     1.94344751     1.44838650
