26
bm_n_2_methoxyethyl_phthalimide conf 0 ff=MMFF E=7.865
C      3.73453507     1.38665991     0.08009218
O      2.76626721     0.41731060     0.45733358
C      2.65980838    -0.62788533    -0.51207870
C      1.59564775    -1.63565888    -0.06865497
N      0.26592697    -1.05235595    -0.03541477
C     -0.42949394    -0.68280906    -1.15350897
O     -0.11381601    -0.79153410    -2.32338271
C     -1.68597379    -0.10038003    -0.68764501
C     -2.74507050     0.43089075    -1.39738859
C     -3.82709194     0.92028740    -0.65847214
C     -3.82383914     0.86713697     0.75134724
C     -2.73850852     0.32367889     1.44634160
C     -1.68203806    -0.15198677     0.69443355
C     -0.42522498    -0.77203068     1.11176788
O     -0.13154308    -0.99084675     2.27139063
H      3.77523419     2.15359713     0.85812798
H      3.45262924     1.86180221    -0.86442695
H      4.72312671     0.92622994    -0.00937654
H      2.40764043    -0.19672542    -1.48728374
H      3.62611552    -1.13866527    -0.59335262
H      1.83707752    -2.01955760     0.92829808
H      1.57539393    -2.47173903    -0.77621101
H     -2.73366333     0.46540989    -2.48183207
H     -4.68387857     1.34850403    -1.17599283
H     -4.67789293     1.25481471     1.30414803
H     -2.72136813     0.27585242     2.53036164
