26
bm_n_2_methoxyethyl_phthalimide conf 4 ff=MMFF E=8.317
C      3.57238572     0.93249315     0.08803695
O      2.65126685     0.29536182     0.96351540
C      2.50634611    -1.10551802     0.71552747
C      1.64490928    -1.41277974    -0.51603674
N      0.31782262    -0.83650742    -0.40727281
C     -0.05956631     0.33995782    -0.99516543
O      0.56191213     1.05995600    -1.75366123
C     -1.42735888     0.60306376    -0.55044352
C     -2.28114641     1.64657631    -0.84986393
C     -3.54946912     1.62309392    -0.26065256
C     -3.92769937     0.57248628     0.60176534
C     -3.04418813    -0.47283163     0.88982324
C     -1.79871271    -0.42726981     0.29476007
C     -0.66719715    -1.34709355     0.39240175
O     -0.65561721    -2.35579177     1.07202060
H      3.23110697     0.88747479    -0.94877745
H      3.64733578     1.98385067     0.37889952
H      4.56309965     0.47685610     0.17789949
H      3.49351098    -1.57275990     0.62127156
H      2.03417131    -1.53150332     1.60750121
H      1.53869587    -2.49875948    -0.61525801
H      2.11896175    -1.02834146    -1.42427191
H     -1.97547586     2.44920889    -1.51303422
H     -4.25474474     2.42627010    -0.46754238
H     -4.92005985     0.57833797     1.04954654
H     -3.32028928    -1.28583149     1.55332141
