26
bm_n_2_methoxyethyl_phthalimide conf 6 ff=MMFF E=8.498
C      4.74943187     0.61726316     0.05732655
O      3.83131303    -0.43944350     0.30533358
C      2.47796364     0.00733589     0.20963816
C      1.54381149    -1.16977222     0.48543972
N      0.14739759    -0.78896478     0.40515271
C     -0.56330915    -0.26881074     1.45163251
O     -0.20444101    -0.05247971     2.59281120
C     -1.89634210     0.03728416     0.93554325
C     -3.00712827     0.55380457     1.57316345
C     -4.15424202     0.75037489     0.79744961
C     -4.16147645     0.43395772    -0.57751303
C     -3.02172313    -0.08453927    -1.20070239
C     -1.90343537    -0.27295764    -0.41258452
C     -0.57492623    -0.77690941    -0.75626332
O     -0.22797911    -1.08196860    -1.88073691
H      4.62306145     1.41545240     0.79509476
H      5.76397929     0.21918842     0.14359509
H      4.61385846     1.01298338    -0.95381283
H      2.30330521     0.80709876     0.93921003
H      2.29418362     0.40816006    -0.79433712
H      1.73842376    -1.97102175    -0.23706691
H      1.74747714    -1.57506746     1.48351113
H     -2.98626383     0.79598375     2.63081479
H     -5.05411463     1.15431935     1.25855723
H     -5.06683882     0.59779166    -1.15978398
H     -3.01198643    -0.32906305    -2.25797519
