26
bm_n_2_methoxyethyl_phthalimide conf 2 ff=MMFF E=7.865
C      3.65934243     0.95440345     1.19850966
O      2.77296181     0.60989433     0.14251005
C      2.64770777    -0.80689031    -0.00088061
C      1.67276318    -1.12564927    -1.13778247
N      0.32118282    -0.68280723    -0.84345903
C     -0.47413384    -1.25380545     0.11139304
O     -0.24194026    -2.20444221     0.83420300
C     -1.72028333    -0.49096167     0.12462700
C     -2.85542012    -0.64204420     0.89683739
C     -3.90259180     0.25828679     0.67522327
C     -3.79089369     1.27268167    -0.29891866
C     -2.63011396     1.40407862    -1.06809449
C     -1.61006447     0.50378917    -0.82991067
C     -0.29541632     0.37358303    -1.45676664
O      0.09522294     1.08481349    -2.36252964
H      4.66069694     0.55908522     1.00273765
H      3.71899184     2.04449698     1.25619097
H      3.28344880     0.57408348     2.15318682
H      3.63006123    -1.22920308    -0.24147304
H      2.30137618    -1.24004920     0.94407453
H      1.64230147    -2.20982070    -1.29179584
H      2.00761283    -0.64453346    -2.06297708
H     -2.92716125    -1.42687262     1.64265008
H     -4.81656388     0.17720330     1.26119313
H     -4.61979404     1.96158619    -0.45262475
H     -2.52929328     2.17909368    -1.82100047
