26
bm_n_2_methoxyethyl_phthalimide conf 8 ff=MMFF E=9.937
C      4.52039472     0.56217806     0.30942186
O      3.84662577    -0.08725462    -0.76157562
C      2.43650582     0.14286197    -0.75302164
C      1.71021003    -0.81444016     0.19518576
N      0.27987159    -0.58019061     0.21084450
C     -0.32193737     0.38132092     0.97538734
O      0.18294857     1.16089059     1.76019498
C     -1.74667619     0.33660984     0.65182809
C     -2.80235658     1.07442423     1.15001590
C     -4.07120564     0.80623475     0.62623256
C     -4.25033537    -0.17617563    -0.37055226
C     -3.16376221    -0.90763066    -0.86104079
C     -1.92214164    -0.62672708    -0.32574500
C     -0.60944171    -1.19693156    -0.62515163
O     -0.40660082    -2.03822216    -1.47862543
H      5.59027679     0.35809197     0.21298582
H      4.18272654     0.17923838     1.27597814
H      4.36847900     1.64458264     0.25793697
H      2.07961376    -0.02611991    -1.77538945
H      2.22038747     1.19146953    -0.51461524
H      2.08923478    -0.69909831     1.21604965
H      1.90501490    -1.84954552    -0.10823354
H     -2.64982173     1.82961275     1.91423454
H     -4.93336063     1.36310756     0.98979371
H     -5.24825410    -0.36470193    -0.76326865
H     -3.28639576    -1.66358503    -1.62999699
