26
bm_n_2_methoxyethyl_phthalimide conf 3 ff=MMFF E=7.865
C      3.68754383    -0.24259214     1.49498609
O      2.65599934    -0.77185195     0.67322486
C      2.68552680    -0.20823940    -0.64016694
C      1.54826418    -0.79723838    -1.47944274
N      0.23974425    -0.42726212    -0.96915097
C     -0.26532015     0.84250247    -1.02316236
O      0.22817255     1.84382616    -1.50678855
C     -1.56942467     0.79918585    -0.36556856
C     -2.49498666     1.80009420    -0.14378466
C     -3.67122547     1.44503504     0.52455095
C     -3.89014587     0.11731676     0.94841921
C     -2.93656754    -0.87803171     0.71119290
C     -1.78329137    -0.50235323     0.05045613
C     -0.61808712    -1.29199827    -0.34572672
O     -0.51372353    -2.48783622    -0.15095951
H      3.56534036     0.83824449     1.61417536
H      3.61846038    -0.71236894     2.47973281
H      4.67008725    -0.46655736     1.06865070
H      2.59676785     0.88168224    -0.57156782
H      3.64393771    -0.45340214    -1.11196723
H      1.62532075    -0.41940073    -2.50480935
H      1.62379702    -1.88974945    -1.49665821
H     -2.31296329     2.81710303    -0.47529601
H     -4.42890159     2.20161159     0.72152722
H     -4.81376742    -0.13420190     1.46702540
H     -3.09055759    -1.90351789     1.03110799
