26
bm_1_amino_9_10_anthraquinone conf 0 ff=MMFF E=71.041
N     -2.71213977    -2.05348359    -0.80719298
C     -2.44355567    -0.72543893    -0.42980477
C     -3.52826191     0.08498363    -0.06443467
C     -3.32935803     1.36175242     0.46010133
C     -2.03576314     1.83117264     0.66490439
C     -0.93799870     1.02076078     0.34676551
C     -1.13268920    -0.25424279    -0.19496799
C      0.05190250    -1.07394305    -0.56156150
O     -0.07096699    -2.13312011    -1.17089225
C      1.40438515    -0.59332520    -0.21609699
C      2.51684823    -1.40728776    -0.47028396
C      3.80072011    -0.95728744    -0.15702270
C      3.97864818     0.30521161     0.40680348
C      2.87290747     1.11890815     0.65796463
C      1.58361886     0.66701913     0.34609348
C      0.42180514     1.53389130     0.61028664
O      0.58457216     2.66582602     1.05183163
H     -3.56117986    -2.18300606    -1.34607434
H     -1.89704116    -2.50350284    -1.24277359
H     -4.54523815    -0.28528025    -0.17688114
H     -4.18306715     1.97993330     0.72774470
H     -1.88557701     2.82369626     1.08688803
H      2.38766555    -2.39352192    -0.91303809
H      4.66176295    -1.59197336    -0.35486381
H      4.97863834     0.65759881     0.65003216
H      3.01936210     2.10465924     1.09647282
