39
conf 1 ff=MMFF E=60.457 Rg=5.22 smiles=Cc1ccc(COc2ccc(C3=CC(=O)C=CC3=O)cc2)cc1
C     -7.25419756    -1.22368252    -1.74219193
C     -5.83457516    -1.18580324    -1.26000093
C     -4.77459616    -1.23731683    -2.17153268
C     -3.45253774    -1.23157649    -1.72086671
C     -3.16602761    -1.18739010    -0.34958671
C     -1.73415943    -1.18796424     0.12767130
C     -4.22876014    -1.14517619     0.56156613
C     -5.55121497    -1.15112017     0.10988316
O     -1.12429364     0.03737272    -0.27365000
C      0.19667557     0.20602764     0.03266560
C      0.74869890     1.40690658    -0.41611105
C      2.09176929     1.71144209    -0.17463922
C      2.90881318     0.81657367     0.52966998
C      4.32781011     1.12964993     0.79831154
C      4.64576693     2.29645560     1.38232099
C      6.03642896     2.67721558     1.68922253
O      6.29963358     3.74906865     2.21705071
C      7.09815914     1.72158346     1.33606437
C      6.80606863     0.55137416     0.76515429
C      5.41412732     0.15794251     0.45989978
O      5.19907121    -0.93471116    -0.05160323
C      2.34840452    -0.38856920     0.97370850
C      1.00277527    -0.69275219     0.72854973
H     -7.59580870    -2.26050547    -1.81847851
H     -7.34633960    -0.74725655    -2.72390713
H     -7.91443823    -0.68276078    -1.05610423
H     -4.97041041    -1.27721421    -3.24060875
H     -2.64156587    -1.25719168    -2.44594501
H     -1.21856034    -2.04639392    -0.32144023
H     -1.70501906    -1.28189296     1.22021498
H     -4.03688727    -1.10563882     1.63130363
H     -6.36029838    -1.12402339     0.83634682
H      0.12709415     2.11104178    -0.96489666
H      2.48762678     2.65093401    -0.55387229
H      3.89965242     3.02914235     1.67179869
H      8.11497954     2.01739164     1.56404718
H      7.57463724    -0.16516025     0.49992302
H      2.95656864    -1.11390874     1.51188529
H      0.62492890    -1.64211328     1.09314545
