39
conf 7 ff=MMFF E=60.826 Rg=5.23 smiles=Cc1ccc(COc2ccc(C3=CC(=O)C=CC3=O)cc2)cc1
C      7.51414567     0.18519361    -0.91583594
C      6.07583769     0.05881410    -0.51023620
C      5.61273493    -1.10784983     0.10792361
C      4.27933663    -1.21604746     0.51241895
C      3.38615225    -0.15576605     0.31188200
C      1.95062643    -0.25699730     0.77033935
C      3.85796679     1.01865239    -0.29070091
C      5.19072144     1.12611778    -0.69494779
O      1.09010183     0.02609733    -0.33236734
C     -0.25593480    -0.00199187    -0.09803695
C     -0.87420487    -0.24389906     1.12752738
C     -2.27211390    -0.23936871     1.22426993
C     -3.07226494     0.00944836     0.09880206
C     -4.54553466     0.02641832     0.20078279
C     -5.13282532     0.83407585     1.09849412
C     -6.59653539     0.91455063     1.25360004
O     -7.10665987     1.64902821     2.08854371
C     -7.42254963     0.07745236     0.36899457
C     -6.86130344    -0.72507246    -0.53754309
C     -5.39444807    -0.81538630    -0.69804811
O     -4.92930079    -1.56617698    -1.54725722
C     -2.44222709     0.24394856    -1.12839875
C     -1.04725210     0.23978866    -1.22218446
H      7.92770190    -0.78893107    -1.19741261
H      7.61892788     0.84494441    -1.78358198
H      8.10187430     0.59331547    -0.08786648
H      6.28808860    -1.94367896     0.27656826
H      3.94550936    -2.13751249     0.98388049
H      1.79866726     0.46952414     1.57839398
H      1.74957367    -1.26842256     1.14421464
H      3.18276692     1.85664048    -0.45236130
H      5.53142254     2.04893439    -1.15882224
H     -0.30398517    -0.44284982     2.02876179
H     -2.72637955    -0.44321386     2.19196786
H     -4.56850225     1.48318093     1.75977784
H     -8.49620205     0.14923839     0.49356463
H     -7.45359558    -1.34797859    -1.19760090
H     -3.02644755     0.42542527    -2.02839422
H     -0.57388909     0.42035375    -2.18477559
