39
conf 3 ff=MMFF E=60.766 Rg=5.22 smiles=Cc1ccc(COc2ccc(C3=CC(=O)C=CC3=O)cc2)cc1
C      7.52506689    -0.80573072    -0.37525789
C      6.06061246    -0.54103992    -0.56122199
C      5.38224655    -1.05426798    -1.67223441
C      4.01061338    -0.83731307    -1.82954840
C      3.29053774    -0.11237427    -0.87158978
C      1.81211239     0.14224468    -1.04182604
C      3.96999707     0.38812503     0.24763191
C      5.34081192     0.17064280     0.40430353
O      1.11852434    -0.42371539     0.06905043
C     -0.23588911    -0.24836340     0.11553495
C     -0.85407388    -0.79029224     1.24359073
C     -2.23675751    -0.68558988     1.42210298
C     -3.02893738    -0.03751653     0.46796399
C     -4.49103233     0.06263768     0.65043485
C     -5.30636177    -0.38416101    -0.31841779
C     -6.77511115    -0.32769047    -0.20635490
O     -7.49626068    -0.72910536    -1.10947522
C     -7.34311920     0.23139753     1.03073838
C     -6.55238061     0.67203544     2.01126907
C     -5.07853595     0.62338771     1.90643666
O     -4.39714857     1.03904371     2.83605977
C     -2.40167410     0.51019793    -0.66135456
C     -1.01557999     0.40455081    -0.83764858
H      8.00264361     0.01076470     0.17654681
H      8.03354686    -0.88469024    -1.34192260
H      7.66941506    -1.73882660     0.17793246
H      5.91837281    -1.62933881    -2.42389430
H      3.50959356    -1.24624022    -2.70386721
H      1.65350633     1.22705334    -1.08920788
H      1.45899310    -0.31775343    -1.97285741
H      3.42736419     0.94317787     1.01042454
H      5.84179728     0.55942145     1.28791166
H     -0.25281967    -1.29562133     1.99618756
H     -2.68211069    -1.11121444     2.31916857
H     -4.93639661    -0.82140476    -1.23985049
H     -8.42370925     0.26391554     1.09908789
H     -6.95288946     1.08625805     2.92914853
H     -2.98266160     1.03629473    -1.41635122
H     -0.58230606     0.84655730    -1.72864460
