39
conf 8 ff=MMFF E=60.826 Rg=5.23 smiles=Cc1ccc(COc2ccc(C3=CC(=O)C=CC3=O)cc2)cc1
C      7.52766125    -0.18837906     0.85572726
C      6.08341161    -0.06051585     0.47231211
C      5.20123775    -1.12867259     0.66594588
C      3.86255212    -1.01972177     0.28221544
C      3.38166598     0.15708497    -0.30841883
C      1.93940059     0.26000424    -0.74481069
C      4.27166415     1.21829286    -0.51800890
C      5.61099707     1.10860878    -0.13404227
O      1.09559909    -0.02727733     0.36967276
C     -0.25381660     0.00157064     0.15575890
C     -1.02809272    -0.24457537     1.29077230
C     -2.42432170    -0.24852737     1.21800098
C     -3.07279175    -0.00940747     0.00133892
C     -4.54743002    -0.02614759    -0.07848959
C     -5.14814301    -0.83043968    -0.97032230
C     -6.61402099    -0.91049372    -1.10364413
O     -7.13663487    -1.64184865    -1.93358942
C     -7.42665153    -0.07685989    -0.20350708
C     -6.85184596     0.72227523     0.69751079
C     -5.38274253     0.81213167     0.83623787
O     -4.90488687     1.55972603     1.68120034
C     -2.28970374     0.24378794    -1.13510058
C     -0.89049554     0.24808998    -1.05941784
H      7.64550317    -0.85158701     1.71915089
H      7.94537447     0.78464966     1.13494450
H      8.10288307    -0.59312560     0.01738491
H      5.54893000    -2.05333247     1.12087751
H      3.18990600    -1.85844016     0.45058979
H      1.77525961    -0.46346616    -1.55322100
H      1.73275776     1.27282339    -1.11180074
H      3.93072627     2.14163817    -0.98061990
H      6.28368635     1.94520490    -0.30939604
H     -0.54026887    -0.42875283     2.24542876
H     -2.99490418    -0.43350167     2.12599735
H     -4.59381531    -1.47694425    -1.64252461
H     -8.50205625    -0.14828877    -0.31215069
H     -7.43415477     1.34259834     1.36878956
H     -2.75850950     0.45128348    -2.09505582
H     -0.33392960     0.45053496    -1.96837866
