39
conf 2 ff=MMFF E=60.457 Rg=5.22 smiles=Cc1ccc(COc2ccc(C3=CC(=O)C=CC3=O)cc2)cc1
C     -7.51946851     0.68979274    -0.33838816
C     -6.06488849     0.32456733    -0.34767382
C     -5.33464837     0.29140640     0.84514457
C     -3.98735608    -0.07706080     0.84034111
C     -3.34906585    -0.43275766    -0.35564343
C     -1.89388601    -0.83280033    -0.35004707
C     -4.08394771    -0.40643372    -1.54753697
C     -5.43190299    -0.03785574    -1.54185527
O     -1.11155139     0.32006076    -0.04531787
C      0.24092266     0.14887438     0.04810632
C      0.93745194    -1.04040754    -0.15759362
C      2.33230585    -1.07151327    -0.02811744
C      3.05235762     0.08298476     0.30693519
C      4.52385975     0.04012753     0.43577096
C      5.27099987     0.92093359    -0.24947707
C      6.74337865     0.93669044    -0.17904552
O      7.40059634     1.75357750    -0.80952921
C      7.39511962    -0.06536847     0.67905099
C      6.67455158    -0.95781833     1.36093435
C      5.19812687    -0.98574071     1.29122115
O      4.58456800    -1.83571542     1.92594083
C      2.34246637     1.27294042     0.51780143
C      0.95085225     1.30223393     0.38574156
H     -7.73785254     1.40433951     0.46221639
H     -7.80977553     1.16228666    -1.28268839
H     -8.12924567    -0.20651004    -0.18895399
H     -5.80842129     0.55768775     1.78721654
H     -3.43223199    -0.08170252     1.77619697
H     -1.61262923    -1.23000396    -1.33315994
H     -1.75009019    -1.61387504     0.40741065
H     -3.61315724    -0.67097312    -2.49152086
H     -5.98420839    -0.03110608    -2.47887331
H      0.43328545    -1.96578541    -0.41542652
H      2.84895260    -2.01695769    -0.18566765
H      4.83936796     1.67143325    -0.90350931
H      8.47710458    -0.03841369     0.72360248
H      7.13748310    -1.70392716     1.99613779
H      2.85710958     2.18969253     0.79685729
H      0.41346683     2.23309722     0.55333560
