39
conf 9 ff=MMFF E=61.752 Rg=4.67 smiles=Cc1ccc(COc2ccc(C3=CC(=O)C=CC3=O)cc2)cc1
C     -5.74380168     2.14800523     1.25986002
C     -4.81891946     1.17858307     0.58594737
C     -4.56306643     1.27788345    -0.78562764
C     -3.72583043     0.35589792    -1.41919694
C     -3.12776852    -0.68325035    -0.69262393
C     -2.24771082    -1.68765254    -1.40318256
C     -3.41208661    -0.79767348     0.67432169
C     -4.24858579     0.12483295     1.30762237
O     -1.25571268    -2.27787241    -0.55760096
C     -0.05396445    -1.63941158    -0.42955242
C      0.21301301    -0.31471684    -0.76879359
C      1.49223790     0.22033262    -0.56921960
C      2.52145995    -0.55857490    -0.01970259
C      3.86748078     0.00634111     0.20374542
C      3.99725669     1.12863562     0.92957241
C      5.30677548     1.74719529     1.20433975
O      5.39811599     2.77700249     1.85854706
C      6.50188594     1.08200538     0.66119772
C      6.39795343    -0.03973549    -0.05414037
C      5.08909787    -0.66620227    -0.33692147
O      5.04842513    -1.69854150    -0.99575384
C      2.24294596    -1.88686837     0.32136305
C      0.96472621    -2.41756441     0.12280883
H     -5.69807028     3.13052969     0.77842075
H     -5.46539591     2.28808332     2.30967182
H     -6.77266445     1.77822492     1.21267621
H     -5.01712774     2.07406558    -1.37142442
H     -3.54607997     0.45498575    -2.48751654
H     -1.79074411    -1.26655773    -2.30786941
H     -2.89449441    -2.50638740    -1.74106495
H     -2.97986766    -1.60831056     1.25797297
H     -4.45194461     0.01263510     2.37027800
H     -0.55249237     0.33721445    -1.17615036
H      1.67078121     1.25565702    -0.85264083
H      3.14854735     1.64551008     1.36529399
H      7.45666512     1.54784632     0.87277849
H      7.26692899    -0.54341294    -0.46110512
H      3.01612355    -2.52718448     0.74121460
H      0.76590782    -3.45155013     0.39478112
