39
conf 4 ff=MMFF E=60.826 Rg=5.23 smiles=Cc1ccc(COc2ccc(C3=CC(=O)C=CC3=O)cc2)cc1
C      7.52136791     0.69177592     0.59149489
C      6.07737849     0.46702082     0.25446183
C      5.66510178    -0.73189185    -0.33742137
C      4.32450166    -0.93147688    -0.67834901
C      3.37262712     0.06804406    -0.43942611
C      1.92726292    -0.13174836    -0.82952613
C      3.79234371     1.27518157     0.13644822
C      5.13233850     1.47399062     0.47716309
O      1.10208723     0.10085726     0.31134732
C     -0.24852472    -0.01831253     0.14058080
C     -1.00097471     0.17802394     1.29972618
C     -2.39596706     0.08875405     1.27152355
C     -3.06544132    -0.19557374     0.07614978
C     -4.53970531    -0.27732838     0.04338982
C     -5.22079280     0.48328538    -0.82878726
C     -6.69224396     0.46516491    -0.91530189
O     -7.28861165     1.15833189    -1.72812377
C     -7.41841502    -0.41891554     0.01024393
C     -6.76321662    -1.17607833     0.89244166
C     -5.28772270    -1.16752342     0.98424424
O     -4.73442994    -1.87985237     1.81349614
C     -2.30377808    -0.39836279    -1.08470159
C     -0.90569958    -0.30923704    -1.05368483
H      8.04101447     1.13318463    -0.26445365
H      7.62213463     1.36237880     1.45136303
H      8.01206230    -0.25076292     0.85620284
H      6.38632081    -1.52181270    -0.53495996
H      4.03149750    -1.87616828    -1.13058879
H      1.77709227    -1.15684874    -1.18981035
H      1.68953055     0.57751778    -1.63221000
H      3.07081173     2.06723285     0.32697426
H      5.43175111     2.42044907     0.92147946
H     -0.49638268     0.39627916     2.23835001
H     -2.94842570     0.23716452     2.19726668
H     -4.73248712     1.16391468    -1.51827875
H     -8.49909999    -0.41955626    -0.06405095
H     -7.28120389    -1.83244138     1.58191793
H     -2.78801673    -0.63863433    -2.02922730
H     -0.36608510    -0.47602607    -1.97994299
