39
conf 5 ff=MMFF E=60.826 Rg=5.23 smiles=Cc1ccc(COc2ccc(C3=CC(=O)C=CC3=O)cc2)cc1
C      7.57487180    -0.00887610    -0.07052049
C      6.09409262    -0.24545209    -0.04734273
C      5.24645947     0.48335225    -0.88820344
C      3.87048767     0.24272972    -0.88739973
C      3.31632949    -0.73572267    -0.05043354
C      1.83115105    -1.00946457    -0.07241652
C      4.16981243    -1.47677657     0.77697016
C      5.54645947    -1.23570443     0.77557065
O      1.13090877     0.20801247     0.18060940
C     -0.23463597     0.15508365     0.18131661
C     -1.01591275    -0.96932965    -0.07961723
C     -2.41386476    -0.87846406    -0.04794323
C     -3.05130955     0.33739146     0.24220819
C     -4.52458238     0.43829575     0.26451077
C     -5.22633576     0.04802731    -0.81174971
C     -6.69718305     0.12690432    -0.86979505
O     -7.31417125    -0.24769190    -1.85763069
C     -7.39729699     0.67067689     0.30481525
C     -6.72011314     1.07431595     1.38154672
C     -5.24544756     0.99572668     1.45060095
O     -4.67111847     1.38188013     2.46165813
C     -2.25817953     1.45866057     0.50989882
C     -0.86353781     1.36566430     0.47682711
H      7.79998129     1.03584608    -0.30950812
H      8.01973237    -0.22082962     0.90743865
H      8.04491225    -0.65269727    -0.82023859
H      5.65082663     1.24734020    -1.54824718
H      3.22681636     0.82738071    -1.54171169
H      1.57708804    -1.74745448     0.69830303
H      1.57250620    -1.40823883    -1.06133445
H      3.77122016    -2.24787540     1.43221352
H      6.18933666    -1.82574328     1.42496764
H     -0.57531547    -1.93395368    -0.30838312
H     -2.99720575    -1.77598738    -0.24418362
H     -4.75554064    -0.34192814    -1.70806789
H     -8.47761621     0.72424165     0.24615081
H     -7.21868448     1.47776037     2.25513670
H     -2.71287823     2.41654362     0.75473026
H     -0.26206298     2.24635606     0.69101051
