39
conf 0 ff=MMFF E=60.415 Rg=5.21 smiles=Cc1ccc(COc2ccc(C3=CC(=O)C=CC3=O)cc2)cc1
C      7.50597324    -0.11713450     0.69251922
C      6.07595378    -0.13304449     0.24073585
C      5.34253108    -1.32458175     0.25067452
C      4.00053893    -1.33425525    -0.13750919
C      3.36796274    -0.15148819    -0.54161667
C      1.91508239    -0.15991200    -0.94719493
C      4.09542435     1.04548215    -0.52239761
C      5.43742632     1.05423977    -0.13404936
O      1.12715686     0.04990187     0.22176326
C     -0.23040148     0.05189550     0.06619287
C     -0.92270622    -0.08977169    -1.13486790
C     -2.32367607    -0.06795000    -1.14746445
C     -3.05401776     0.09673204     0.03705689
C     -4.53133159     0.12320505     0.01171320
C     -5.18176209     1.14725384     0.58779444
C     -6.65239460     1.24847584     0.59740784
O     -7.22063791     2.18970742     1.13400476
C     -7.41346487     0.17482275    -0.06080604
C     -6.78931624    -0.84718749    -0.64951840
C     -5.31496128    -0.95360642    -0.67040576
O     -4.79120607    -1.90518786    -1.23782061
C     -2.34897879     0.23248231     1.24076913
C     -0.95097657     0.21294890     1.25069155
H      8.06811766     0.67183093     0.18187520
H      7.99889828    -1.06749267     0.46213879
H      7.55555396     0.05486820     1.77209344
H      5.81029843    -2.25443433     0.56620904
H      3.44756219    -2.27076995    -0.11404624
H      1.67396261    -1.12543268    -1.40990413
H      1.73884148     0.63738548    -1.68034690
H      3.61751206     1.98179212    -0.80178562
H      5.98008929     1.99674963    -0.12127154
H     -0.41104973    -0.22357719    -2.08212721
H     -2.83782510    -0.19020382    -2.09947461
H     -4.66668349     1.96809169     1.07587526
H     -8.49308733     0.26114402    -0.04168889
H     -7.33337963    -1.64558076    -1.14046705
H     -2.87352118     0.34458852     2.18705167
H     -0.41750764     0.31801302     2.19291156
