39
conf 6 ff=MMFF E=60.826 Rg=5.23 smiles=Cc1ccc(COc2ccc(C3=CC(=O)C=CC3=O)cc2)cc1
C     -7.51722013     0.64615748     0.55792825
C     -6.07781846     0.38762953     0.22551267
C     -5.18805244    -0.04349029     1.21502678
C     -3.85411040    -0.31204901     0.89931408
C     -3.38568464    -0.16084214    -0.41319966
C     -1.94872672    -0.47740575    -0.75396675
C     -4.28342692     0.25312296    -1.40561587
C     -5.61801094     0.52147597    -1.08915679
O     -1.09147767     0.28893516     0.09129592
C      0.25537863     0.11769092    -0.06416535
C      1.04312561     0.92419656     0.75884489
C      2.43848473     0.85235877     0.70804985
C      3.07253131    -0.03526704    -0.16834521
C      4.54627943    -0.12053818    -0.21315701
C      5.14115777    -1.31177687    -0.03944251
C      6.60587074    -1.47652200    -0.06082547
O      7.12297320    -2.57542950     0.08690312
C      7.42418496    -0.27122739    -0.26863656
C      6.85533810     0.92467178    -0.43323084
C      5.38741130     1.09934951    -0.41702508
O      4.91515006     2.21944907    -0.57048412
C      2.27592184    -0.83902231    -0.99793798
C      0.87761443    -0.76453759    -0.94580064
H     -7.62238462     1.00323848     1.58781564
H     -8.09917619    -0.27315853     0.44086695
H     -7.93706834     1.41697077    -0.09690664
H     -5.52604267    -0.17010385     2.24098005
H     -3.17534477    -0.63684512     1.68546682
H     -1.75101972    -0.22683344    -1.80339966
H     -1.78982212    -1.55168512    -0.59728267
H     -3.95228204     0.37258301    -2.43464074
H     -6.29690592     0.83920827    -1.87738575
H      0.56660352     1.62243837     1.44342452
H      3.01978869     1.50444638     1.35697407
H      4.58269996    -2.22540819     0.13521294
H      8.49867847    -0.40812877    -0.27969894
H      7.44189225     1.82292466    -0.58683730
H      2.73325652    -1.52870481    -1.70471022
H      0.31023323    -1.40787173    -1.60999321
