41
conf 8 ff=MMFF E=90.556 Rg=5.29 smiles=Cc1ccc(COc2ccc3c(c2)C(=O)c2ccccc2C3=O)cc1
C     -7.56785344     1.39602928    -0.31437148
C     -6.21890159     0.74975088    -0.20455723
C     -5.60861027     0.18625754    -1.33046920
C     -4.36456892    -0.44042581    -1.22353734
C     -3.71809543    -0.53221660     0.01583979
C     -2.36881337    -1.19604855     0.12941406
C     -4.33046968     0.03286041     1.14196362
C     -5.57451074     0.65935225     1.03408454
O     -1.36653548    -0.20315146    -0.07580613
C     -0.06201616    -0.60394437    -0.01210913
C      0.38752191    -1.90159906     0.23591722
C      1.75935201    -2.17426033     0.27392779
C      2.68860893    -1.14878972     0.06373287
C      2.24407144     0.14666558    -0.18396340
C      0.87018896     0.41694611    -0.22149379
C      3.21236469     1.23883971    -0.40760550
O      2.82370309     2.38007807    -0.62586642
C      4.65777189     0.93825715    -0.36489318
C      5.58597606     1.96619516    -0.57551103
C      6.95403500     1.69121316    -0.53691843
C      7.39837280     0.39284662    -0.28864357
C      6.47554613    -0.63320350    -0.07845425
C      5.10219377    -0.35944869    -0.11675412
C      4.13320186    -1.45072602     0.10667883
O      4.52063628    -2.59268410     0.32505805
H     -8.35348460     0.65145990    -0.15338573
H     -7.70540458     1.84811608    -1.30226031
H     -7.67988856     2.19495305     0.42616704
H     -6.09498659     0.23835395    -2.30195124
H     -3.90059117    -0.85359352    -2.11637738
H     -2.28896974    -1.98789727    -0.62614788
H     -2.26891946    -1.64645670     1.12512998
H     -3.83949638    -0.00765781     2.11174065
H     -6.03402567     1.08384095     1.92386276
H     -0.29807439    -2.72634680     0.40426908
H      2.09886919    -3.19068169     0.46835427
H      0.51724855     1.42922262    -0.41498106
H      5.24685616     2.98244830    -0.76993166
H      7.67297790     2.49106332    -0.70076016
H      8.46451433     0.17862909    -0.25857979
H      6.83020524    -1.64424720     0.11479282
