41
conf 5 ff=MMFF E=90.516 Rg=5.29 smiles=Cc1ccc(COc2ccc3c(c2)C(=O)c2ccccc2C3=O)cc1
C      7.59576467    -1.26765099     0.03475778
C      6.25244190    -0.60407942     0.10250406
C      5.64003888    -0.12256980    -1.05971306
C      4.37341461     0.46413503    -1.00279437
C      3.69630239     0.57855689     0.21818872
C      2.32297740     1.19863242     0.27795899
C      4.29831166     0.06908080     1.37595715
C      5.56495958    -0.51746165     1.31803576
O      1.36002521     0.16525204     0.08455346
C      0.04162809     0.52299118     0.10231220
C     -0.45727685     1.81209801     0.29415706
C     -1.83797610     2.03871476     0.28875777
C     -2.72670607     0.97548995     0.09125475
C     -2.23288116    -0.31161737    -0.10022093
C     -0.85022525    -0.53576667    -0.09438982
C     -3.15802957    -1.44329010    -0.30967090
O     -2.72592831    -2.57730790    -0.47824719
C     -4.61328370    -1.19110472    -0.31349909
C     -5.50086061    -2.25675948    -0.51140763
C     -6.87787071    -2.02761365    -0.51662124
C     -7.37160343    -0.73754664    -0.32482358
C     -6.48932638     0.32601942    -0.12739201
C     -5.10707802     0.09828892    -0.12177635
C     -4.18120156     1.22904095     0.08776604
O     -4.61209642     2.36378762     0.25670940
H      7.47477768    -2.34017235    -0.14578471
H      8.14892352    -1.12577942     0.96916783
H      8.20287003    -0.83924703    -0.76968623
H      6.14347847    -0.20655192    -2.02021438
H      3.91365183     0.82317283    -1.92087454
H      2.23468678     1.96121891    -0.50622706
H      2.18412951     1.67872349     1.25495735
H      3.77926750     0.11708556     2.33066603
H      6.00929499    -0.91227104     2.22894530
H      0.19579904     2.66506012     0.45084191
H     -2.21617156     3.04889610     0.43940310
H     -0.45878524    -1.54131740    -0.24387220
H     -5.12306916    -3.26681180    -0.66187346
H     -7.56521289    -2.85668633    -0.67051526
H     -8.44471520    -0.55904282    -0.32892831
H     -6.88244554     1.33030328     0.02163764
