41
conf 1 ff=MMFF E=89.895 Rg=5.26 smiles=Cc1ccc(COc2ccc3c(c2)C(=O)c2ccccc2C3=O)cc1
C     -7.78999422     0.30044749    -0.54174682
C     -6.29948921     0.15150299    -0.46699512
C     -5.50983794     0.34010008    -1.60655393
C     -4.12419968     0.17292823    -1.54451018
C     -3.50593664    -0.20540933    -0.34574448
C     -2.00862027    -0.37147830    -0.27464491
C     -4.29812244    -0.39388639     0.79414292
C     -5.68369284    -0.22649215     0.73118190
O     -1.44067460     0.88995613     0.07312398
C     -0.08119753     0.95595400     0.19017550
C      0.41107894     2.21866688     0.53260944
C      1.78245603     2.43342809     0.68657992
C      2.67690761     1.37612912     0.49699413
C      2.19275798     0.11498296     0.15554243
C      0.81295721    -0.09775671     0.00143563
C      3.12652274    -1.01112396    -0.04778801
O      2.70045137    -2.12038494    -0.34813429
C      4.57639242    -0.78408290     0.11499256
C      5.46990431    -1.84604227    -0.07579544
C      6.84220138    -1.64019443     0.07608551
C      7.32502889    -0.37730537     0.41786375
C      6.43657700     0.68235849     0.60847134
C      5.05901758     0.47819666     0.45660750
C      4.12661325     1.60479867     0.66016007
O      4.54971406     2.71487341     0.96048691
H     -8.24864499    -0.65678334    -0.80795380
H     -8.19805650     0.63393086     0.41820407
H     -8.07093824     1.04829564    -1.29076521
H     -5.96829164     0.62519547    -2.55077979
H     -3.52879567     0.34263636    -2.43887197
H     -1.63373563    -0.70901815    -1.24919683
H     -1.76236879    -1.12811750     0.48105360
H     -3.83965051    -0.67042928     1.74098918
H     -6.27899852    -0.38740004     1.62713992
H     -0.28263121     3.04440983     0.68103572
H      2.14473852     3.42458873     0.95357874
H      0.46907842    -1.09312615    -0.26521280
H      5.10103505    -2.83500358    -0.34275378
H      7.53469717    -2.46597376    -0.07244115
H      8.39448662    -0.21675665     0.53625855
H      6.82126055     1.66541414     0.87517524
