41
conf 7 ff=MMFF E=90.556 Rg=5.30 smiles=Cc1ccc(COc2ccc3c(c2)C(=O)c2ccccc2C3=O)cc1
C      7.59424157    -1.19302568     0.52981547
C      6.23280421    -0.60554756     0.30451616
C      5.54395932    -0.84891453    -0.88871437
C      4.28780264    -0.27937822    -1.11068009
C      3.70687868     0.55993332    -0.15103767
C      2.34489495     1.16284138    -0.38709128
C      4.39796277     0.80244710     1.04298042
C      5.65424842     0.23247348     1.26407383
O      1.36207485     0.21513271     0.02346243
C      0.05001932     0.56967609    -0.11533937
C     -0.42466595     1.77969406    -0.62331086
C     -1.80153348     2.01291622    -0.71022497
C     -2.71066375     1.03554908    -0.28887857
C     -2.24101456    -0.17250601     0.21827211
C     -0.86214536    -0.40343903     0.30426331
C     -3.18786866    -1.21317059     0.66652484
O     -2.77707837    -2.27769037     1.11281279
C     -4.63883654    -0.95481203     0.57003095
C     -5.54685402    -1.93438722     0.99254176
C     -6.91999297    -1.69880270     0.90492550
C     -7.38950707    -0.48799378     0.39666335
C     -6.48682865     0.48972218    -0.02501528
C     -5.10842032     0.25538139     0.06204729
C     -4.16085020     1.29504442    -0.38625060
O     -4.57042773     2.35995604    -0.83354725
H      7.69253219    -2.15802300     0.02152830
H      8.36263076    -0.51288659     0.14967354
H      7.77259108    -1.36855419     1.59593897
H      5.97793663    -1.49113246    -1.65176474
H      3.76173357    -0.49869749    -2.03719586
H      2.25051900     2.09082857     0.19088699
H      2.23526636     1.39779905    -1.45347672
H      3.96059933     1.43488529     1.81225259
H      6.17553065     0.44153419     2.19554424
H      0.24476036     2.56474897    -0.96117439
H     -2.16075445     2.96091284    -1.10828256
H     -0.48958953    -1.34727014     0.70061148
H     -5.18802517    -2.88224754     1.39050559
H     -7.62322921    -2.46096137     1.23364507
H     -8.45960718    -0.30447857     0.32841183
H     -6.86109345     1.43244268    -0.42066880
