41
conf 9 ff=MMFF E=90.954 Rg=4.51 smiles=Cc1ccc(COc2ccc3c(c2)C(=O)c2ccccc2C3=O)cc1
C      5.22610814     2.00977926    -1.85714941
C      4.47955134     1.21331924    -0.82878192
C      4.43403762    -0.18240505    -0.90858129
C      3.76284357    -0.92597496     0.06492305
C      3.12585679    -0.28812557     1.13781902
C      2.41852279    -1.08913409     2.20649259
C      3.19726875     1.10803512     1.23032572
C      3.86796171     1.85131357     0.25566353
O      1.65717441    -2.17770663     1.67324110
C      0.41810904    -1.92625920     1.15465124
C     -0.24235814    -3.05729703     0.66496311
C     -1.51403862    -2.95368354     0.09693192
C     -2.13904044    -1.70618320     0.01611965
C     -1.48892808    -0.57532139     0.50518368
C     -0.20903984    -0.68349456     1.07269240
C     -2.14161577     0.74819189     0.43483334
O     -1.58544915     1.73963331     0.89315140
C     -3.47593558     0.86092110    -0.18761367
C     -4.09439813     2.11466757    -0.27887499
C     -5.35669223     2.23030647    -0.86360815
C     -6.00379638     1.09778081    -1.35694144
C     -5.38987420    -0.15261364    -1.26657414
C     -4.12286213    -0.27096569    -0.68069157
C     -3.48176908    -1.59772154    -0.58839299
O     -4.05574782    -2.59561899    -1.00850247
H      4.77941183     3.00168756    -1.98287058
H      5.19513210     1.51420470    -2.83320216
H      6.27067884     2.12785289    -1.55310430
H      4.92023417    -0.70195304    -1.73116346
H      3.73598107    -2.01058771    -0.01964029
H      1.80336369    -0.46543688     2.86643511
H      3.18971428    -1.53108131     2.84919714
H      2.72746592     1.63184050     2.06010752
H      3.90798943     2.93445867     0.34848441
H      0.24124130    -4.03055239     0.72303121
H     -2.00880669    -3.84651780    -0.28091373
H      0.27173734     0.22097542     1.43184940
H     -3.59584513     3.00350539     0.10423245
H     -5.83507891     3.20480564    -0.93385895
H     -6.98758634     1.18762894    -1.81250486
H     -5.90152148    -1.03227383    -1.65368710
