41
conf 3 ff=MMFF E=89.895 Rg=5.26 smiles=Cc1ccc(COc2ccc3c(c2)C(=O)c2ccccc2C3=O)cc1
C     -7.79635494     0.13934707     0.43163838
C     -6.29695410     0.15875851     0.45988597
C     -5.58192356    -0.95088859     0.92368643
C     -4.18620500    -0.92276466     0.97778721
C     -3.48171659     0.22347017     0.58747046
C     -1.97440132     0.24846413     0.63185230
C     -4.19925026     1.33352257     0.12348291
C     -5.59499427     1.30452041     0.06973563
O     -1.48790698    -0.24273443    -0.61585478
C     -0.13330201    -0.30291596    -0.78216265
C      0.27747129    -0.79282745    -2.02526102
C      1.63439509    -0.90953558    -2.33451992
C      2.59649127    -0.53317732    -1.39292954
C      2.19374027    -0.04404556    -0.15195315
C      0.82826625     0.07209420     0.15602435
C      3.19956094     0.35734114     0.85233307
O      2.84508575     0.78759503     1.94386098
C      4.63415102     0.23398354     0.52537473
C      5.59560831     0.61217701     1.47146757
C      6.95402564     0.49884238     1.17063804
C      7.35534267     0.00906801    -0.07189587
C      6.39909094    -0.36839023    -1.01618077
C      5.03530522    -0.25555562    -0.71656135
C      4.03081292    -0.65716965    -1.72142206
O      4.38226724    -1.08767427    -2.81349481
H     -8.19309874     0.49811242     1.38631051
H     -8.18035069     0.77530057    -0.37293699
H     -8.17072838    -0.87374526     0.25075226
H     -6.10737879    -1.84888939     1.24071774
H     -3.65076169    -1.80375835     1.32471883
H     -1.62523360    -0.38262532     1.45892890
H     -1.63229110     1.27711052     0.80227007
H     -3.67443252     2.22893777    -0.20204985
H     -6.13080510     2.18191590    -0.28538851
H     -0.46907140    -1.08685014    -2.76101918
H      1.93271314    -1.29346207    -3.30845194
H      0.54861399     0.45715497     1.13256799
H      5.29056545     0.99547852     2.44378703
H      7.69935693     0.79298550     1.90649412
H      8.41397541    -0.07930222    -0.30646075
H      6.72032129    -0.74986821    -1.98406357
