41
conf 2 ff=MMFF E=89.895 Rg=5.26 smiles=Cc1ccc(COc2ccc3c(c2)C(=O)c2ccccc2C3=O)cc1
C     -7.80893250     0.02153032    -0.10462893
C     -6.31329075    -0.07929354    -0.15221540
C     -5.62677757    -0.87952107     0.76758936
C     -4.23604988    -0.99707911     0.70570552
C     -3.50913274    -0.33178306    -0.29000514
C     -2.00645320    -0.44667001    -0.34787791
C     -4.19814180     0.46888112    -1.21011249
C     -5.58890006     0.58585783    -1.14748286
O     -1.45318314     0.58611471     0.46573837
C     -0.09158108     0.65766543     0.55034428
C      0.38583826     1.69042042     1.36245921
C      1.75748900     1.88303746     1.54128572
C      2.66722427     1.03551045     0.90257818
C      2.19793060     0.00414151     0.09170060
C      0.81781182    -0.18694936    -0.08610890
C      3.14793222    -0.89877774    -0.58918956
O      2.73492723    -1.80593502    -1.30241976
C      4.59809152    -0.69513215    -0.40015637
C      5.50694260    -1.54643909    -1.04186411
C      6.87962813    -1.36103965    -0.86865403
C      7.34757580    -0.32827868    -0.05670835
C      6.44382472     0.52122834     0.58371212
C      5.06584388     0.33713199     0.41139609
C      4.11719942     1.24046614     1.09264966
O      4.52721781     2.14823482     1.80631587
H     -8.25664224    -0.76730912    -0.71683579
H     -8.14712671     0.99410988    -0.47737267
H     -8.17476000    -0.07688389     0.92284775
H     -6.17048247    -1.41290737     1.54405891
H     -3.72212030    -1.61037355     1.44255515
H     -1.70328586    -1.43452122     0.02154763
H     -1.67332525    -0.33986314    -1.38798761
H     -3.65454364     1.00968553    -1.98161390
H     -6.10282407     1.20594911    -1.87850627
H     -0.31979648     2.35240892     1.86142471
H      2.10805764     2.69337748     2.17798660
H      0.48574283    -1.00045860    -0.72489501
H      5.14974510    -2.35506692    -1.67740127
H      7.58404722    -2.02304418    -1.36772028
H      8.41733466    -0.18368988     0.07835856
H      6.81694499     1.32526489     1.21602414
