41
conf 4 ff=MMFF E=90.516 Rg=5.29 smiles=Cc1ccc(COc2ccc3c(c2)C(=O)c2ccccc2C3=O)cc1
C     -7.49416200     1.06140382     1.33791065
C     -6.20201367     0.62690301     0.71261888
C     -5.54892255     1.45062892    -0.21074514
C     -4.32766613     1.06271929    -0.76739292
C     -3.73739988    -0.15613763    -0.40914769
C     -2.41214223    -0.56865951    -0.99872606
C     -4.37810491    -0.96563252     0.53775765
C     -5.59932877    -0.57686695     1.09385620
O     -1.37600105    -0.06289254    -0.16017399
C     -0.08640670    -0.33050424    -0.52320919
C      0.31758129    -1.05659216    -1.64441218
C      1.67890627    -1.25665069    -1.89835414
C      2.64321640    -0.73063067    -1.03077104
C      2.24414254    -0.00593553     0.08848251
C      0.88068767     0.19291474     0.34039887
C      3.24976982     0.55507085     1.01283846
O      2.90113346     1.19336405     1.99882320
C      4.68364239     0.33697922     0.73387744
C      5.64697250     0.86432038     1.60363681
C      7.00444259     0.66303889     1.34781137
C      7.40322382    -0.06322109     0.22604866
C      6.44533270    -0.58970129    -0.64218658
C      5.08252774    -0.38893055    -0.38731422
C      4.07623078    -0.94941233    -1.31088455
O      4.42360270    -1.58806645    -2.29745061
H     -8.11210067     0.19587257     1.59913510
H     -8.07587023     1.67759553     0.64426108
H     -7.29501819     1.64082526     2.24462815
H     -5.98455878     2.40466055    -0.49903433
H     -3.83432256     1.72378386    -1.47645443
H     -2.36507756    -1.66365706    -1.05407684
H     -2.32303486    -0.15941670    -2.01305321
H     -3.92433392    -1.90149430     0.85624441
H     -6.07459107    -1.21857957     1.83236326
H     -0.39625648    -1.48194957    -2.34305945
H      1.98274965    -1.82490655    -2.77639429
H      0.56329212     0.75941298     1.21506532
H      5.34351262     1.43247575     2.48152126
H      7.75072097     1.07345926     2.02464683
H      8.46112020    -0.22002886     0.02675594
H      6.76450398    -1.15556218    -1.51584121
