41
conf 6 ff=MMFF E=90.516 Rg=5.29 smiles=Cc1ccc(COc2ccc3c(c2)C(=O)c2ccccc2C3=O)cc1
C      7.53689460     1.50917847    -0.00889187
C      6.22545915     0.78182853     0.01406429
C      5.55883327     0.56004287     1.22402859
C      4.32048045    -0.08634494     1.24301844
C      3.72625339    -0.52142097     0.05131611
C      2.38288418    -1.20629753     0.07139041
C      4.38119738    -0.27200066    -1.16155912
C      5.61961086     0.37444555    -1.17953125
O      1.37160429    -0.20301359     0.01381075
C      0.07070376    -0.62014648     0.02517187
C     -0.36704418    -1.94387752     0.08535358
C     -1.73641943    -2.23111070     0.09004812
C     -2.67501705    -1.19417275     0.03453147
C     -2.24224588     0.12728879    -0.02561674
C     -0.87079718     0.41211168    -0.03030078
C     -3.22047622     1.23184788    -0.08445397
O     -2.84215642     2.39598043    -0.13733316
C     -4.66317730     0.91569041    -0.07864093
C     -5.60073481     1.95516159    -0.13398916
C     -6.96631798     1.66560084    -0.12887383
C     -7.39886575     0.34117343    -0.06867008
C     -6.46670251    -0.69641582    -0.01345213
C     -5.09581512    -0.40806534    -0.01846045
C     -4.11689173    -1.51170182     0.04028250
O     -4.49396190    -2.67655309     0.09319533
H      8.10783804     1.31381986     0.90493769
H      7.36592227     2.58653178    -0.09607441
H      8.15205523     1.17866656    -0.85243553
H      5.99721161     0.89502710     2.16139803
H      3.81661200    -0.23974643     2.19475724
H      2.30593676    -1.88208897    -0.78977544
H      2.29146082    -1.79580573     0.99251757
H      3.92598912    -0.57151099    -2.10293940
H      6.10603287     0.56332020    -2.13388670
H      0.32606341    -2.77829455     0.12953439
H     -2.06669441    -3.26787567     0.13722870
H     -0.52706781     1.44474688    -0.07736215
H     -5.27084695     2.99175175    -0.18115341
H     -7.69254680     2.47444246    -0.17190328
H     -8.46308068     0.11560331    -0.06467992
H     -6.81218335    -1.72781684     0.03339864
