41
conf 0 ff=MMFF E=89.862 Rg=5.26 smiles=Cc1ccc(COc2ccc3c(c2)C(=O)c2ccccc2C3=O)cc1
C      7.79512535    -0.11463309    -0.29953815
C      6.31511554     0.07291812    -0.14532463
C      5.65864191    -0.38201905     1.00349176
C      4.27510491    -0.23801908     1.13341079
C      3.52337385     0.36269402     0.11535834
C      2.02782835     0.50453626     0.24868787
C      4.17836111     0.79099792    -1.04650814
C      5.56193753     0.64657683    -1.17553952
O      1.42360026    -0.67415157    -0.28080869
C      0.05968602    -0.74692311    -0.25462348
C     -0.46879617    -1.92612787    -0.78775106
C     -1.84878497    -2.13743814    -0.82624355
C     -2.71541161    -1.16097662    -0.32689289
C     -2.19511787     0.01670138     0.20587906
C     -0.80674318     0.22620261     0.24314524
C     -3.09921906     1.05686093     0.73695974
O     -2.64136267     2.09270737     1.20556254
C     -4.55819231     0.83345999     0.69626188
C     -5.42375105     1.81426392     1.19761203
C     -6.80441218     1.61123382     1.16305291
C     -7.32342721     0.43194255     0.62946104
C     -6.46287412    -0.54676815     0.12932158
C     -5.07698811    -0.34526204     0.16292976
C     -4.17426559    -1.38589557    -0.36830898
O     -4.62915984    -2.42248404    -0.83738664
H      8.00317800    -1.08259548    -0.76567859
H      8.22660144     0.67761808    -0.92034175
H      8.29730284    -0.07438928     0.67279237
H      6.22044829    -0.85662685     1.80483626
H      3.78550705    -0.60565619     2.03248889
H      1.69621991     1.39170581    -0.30556009
H      1.76781648     0.63044461     1.30735019
H      3.61260807     1.23340283    -1.86345709
H      6.04762900     0.98156122    -2.08927990
H      0.20315817    -2.68878461    -1.17754624
H     -2.23945010    -3.06284480    -1.24569612
H     -0.43440930     1.15537802     0.66519213
H     -5.02656064     2.73768376     1.61583827
H     -7.47516635     2.37392720     1.55281051
H     -8.39940723     0.27360108     0.60247308
H     -6.87574450    -1.46482279    -0.28567709
