28
conf 0 ff=MMFF E=72.751 Rg=3.44 smiles=Cc1ccc(C[n+]2ccccc2)cc1
C     -4.36400270     0.13976087    -1.27544209
C     -3.02364016     0.22514358    -0.60385150
C     -2.54080284     1.45289430    -0.14119569
C     -1.31034832     1.52983951     0.51499536
C     -0.54188543     0.37532878     0.72473603
C      0.78868706     0.46547681     1.42470505
C     -1.04092752    -0.85872569     0.28205287
C     -2.27179530    -0.93101203    -0.37408814
N      1.89161707     0.00195559     0.54571369
C      2.21794554     0.72471117    -0.55310489
C      3.25267162     0.31771675    -1.38695658
C      3.95686773    -0.83967868    -1.08338655
C      3.61392085    -1.56871183     0.04749270
C      2.57169602    -1.12673943     0.85452159
H     -4.38717683    -0.68383100    -1.99679611
H     -5.14699510    -0.02136327    -0.52814723
H     -4.58358760     1.06019211    -1.82660562
H     -3.12860802     2.35856561    -0.28657145
H     -0.97425744     2.50538551     0.86338073
H      1.03598414     1.49499424     1.71068589
H      0.77554604    -0.13741272     2.33931085
H     -0.49131337    -1.78369777     0.44309065
H     -2.64830063    -1.89861215    -0.70381662
H      1.64065148     1.62228138    -0.75761247
H      3.50702313     0.89898884    -2.27083799
H      4.76984825    -1.17314252    -1.72738412
H      4.15643411    -2.47806134     0.29793831
H      2.27474821    -1.67224660     1.74577857
