28
conf 1 ff=MMFF E=72.789 Rg=3.43 smiles=Cc1ccc(C[n+]2ccccc2)cc1
C     -4.18302524    -0.77553104    -1.68131123
C     -2.96816064    -0.49765641    -0.84361041
C     -2.22468653     0.67010354    -1.03938758
C     -1.07959642     0.91844238    -0.27919759
C     -0.64815626    -0.00852299     0.68128829
C      0.58983501     0.24604248     1.50050526
C     -1.39331965    -1.18159263     0.87141857
C     -2.53798518    -1.42570649     0.10939528
N      1.79364714     0.35168522     0.63822688
C      2.44355114     1.53383857     0.52867395
C      3.57838806     1.64703116    -0.26643055
C      4.04564129     0.53258555    -0.95030412
C      3.37091558    -0.67451742    -0.82686380
C      2.24068592    -0.74452952    -0.02107280
H     -3.89567369    -1.31651046    -2.58809122
H     -4.68158387     0.15654888    -1.96741628
H     -4.91130949    -1.37582278    -1.12594004
H     -2.54224060     1.39801349    -1.78505493
H     -0.54046114     1.84709284    -0.45386316
H      0.47594695     1.16918390     2.07931735
H      0.78999019    -0.56613814     2.20982908
H     -1.10328185    -1.92313475     1.61437941
H     -3.10188899    -2.34428539     0.26781856
H      2.04852488     2.38461427     1.07661110
H      4.09641697     2.59991058    -0.35379439
H      4.93248362     0.60464680    -1.57894332
H      3.72246416    -1.55655461    -1.35812587
H      1.68287862    -1.66923701     0.09915399
