46
charge=-1 mult=1 n_e=-1 smiles=Cc1ccc(COC2CC(C)(C)N([O])C(C)(C)C2)cc1
C      7.04270078    -0.37707625     1.13277263
C      5.62941894    -0.14272247     0.69149600
C      5.34178944     0.15132648    -0.64575261
C      4.02046112     0.33470785    -1.06344869
C      2.95906092     0.20748683    -0.15683181
C      1.53926019     0.45406448    -0.61395800
C      3.25246052    -0.08811444     1.18081429
C      4.57288765    -0.27219996     1.59914244
O      0.63112532    -0.36852905     0.11476660
C     -0.74148473     0.05055414    -0.01090422
C     -1.55043144    -0.72948320     1.01722962
C     -3.05889270    -0.37852590     0.98297724
C     -3.76059328    -1.45299329     1.86247536
C     -3.26884660     0.99000662     1.68051065
N     -3.55955083    -0.49165730    -0.40907670
O     -4.94143427    -0.10037467    -0.47503329
C     -2.80072504     0.11679290    -1.52721866
C     -2.92078332     1.65494641    -1.68351910
C     -3.27462165    -0.51836302    -2.86625726
C     -1.30068496    -0.25275947    -1.39671530
H      7.17848623    -0.08654578     2.17986393
H      7.29852037    -1.43541127     1.02314929
H      7.74196982     0.21961441     0.53760383
H      6.14438523     0.24031226    -1.37362261
H      3.82204445     0.57148566    -2.10621645
H      1.30994863     1.51508035    -0.46015880
H      1.45303575     0.21465092    -1.67889394
H      2.44315441    -0.18850553     1.90217083
H      4.76573818    -0.51884879     2.64026025
H     -0.79020740     1.12094669     0.21484888
H     -1.13192201    -0.55448133     2.01787438
H     -1.40412216    -1.80477726     0.83627734
H     -3.67020954    -2.45208126     1.41908358
H     -4.82710325    -1.24287139     2.00159892
H     -3.30949172    -1.49780691     2.86118802
H     -2.89527540     0.95502777     2.71159325
H     -2.74004203     1.80695257     1.18878779
H     -4.32731932     1.26494775     1.74358682
H     -2.52232894     2.20391970    -0.82980006
H     -2.35701525     1.99554378    -2.56108468
H     -3.95646834     1.97687912    -1.83699097
H     -3.23440253    -1.61359309    -2.82387247
H     -2.63524974    -0.20099484    -3.69897218
H     -4.30037079    -0.22965155    -3.12204656
H     -0.71983697     0.27395803    -2.16383786
H     -1.14703373    -1.32083672    -1.60935486
