38
bm_1_benzyl_1_methyl_4_4_bipyridinium conf 4 ff=MMFF E=151.281
C     -6.59096764     0.73333981    -0.73180945
N     -5.17699276     0.46926050    -0.39782579
C     -4.33079213     1.50419660    -0.20490925
C     -2.99334859     1.27540875     0.12190603
C     -2.50560002    -0.03000918     0.25660403
C     -1.09264818    -0.29356598     0.59517575
C     -0.30158179    -1.14343338    -0.18608148
C      1.03440310    -1.37324924     0.14390615
N      1.58963518    -0.78061106     1.22575410
C      3.01959070    -1.03899962     1.55223330
C      3.92174016    -0.37037992     0.54944109
C      4.01841811     1.02928637     0.49224243
C      4.84380574     1.64226481    -0.45152671
C      5.58108537     0.86745187    -1.34332948
C      5.50052069    -0.52167598    -1.29099398
C      4.67732360    -1.14026492    -0.34926895
C      0.85503512     0.04064184     2.00794801
C     -0.48387708     0.29805802     1.70822999
C     -3.41609747    -1.07427512     0.05509546
C     -4.74711755    -0.80445966    -0.26670785
H     -6.65556301     1.66502841    -1.29964418
H     -7.13928670     0.81069008     0.21019349
H     -6.97386564    -0.08962658    -1.34070506
H     -4.72983976     2.50956131    -0.31470206
H     -2.33621992     2.13411067     0.25547296
H     -0.70746315    -1.62532687    -1.07493322
H      1.66788536    -2.02109179    -0.45705522
H      3.22986112    -0.67327134     2.56333325
H      3.14680985    -2.12812990     1.56346417
H      3.47147284     1.66579036     1.18412467
H      4.92720228     2.72718087    -0.48839902
H      6.23283815     1.34696954    -2.07187156
H      6.09357620    -1.12085021    -1.98032552
H      4.65271255    -2.22882551    -0.32622309
H      1.34252591     0.49187055     2.86850491
H     -1.04615914     0.96055009     2.36554688
H     -3.10640446    -2.11361211     0.15934931
H     -5.47261706    -1.60000205    -0.41773304
