38
bm_1_benzyl_1_methyl_4_4_bipyridinium conf 3 ff=MMFF E=151.281
C      6.56283131    -1.27415547    -0.26136578
N      5.15890070    -0.82392346    -0.17844163
C      4.76108672     0.25926440    -0.88043738
C      3.44010706     0.70425560    -0.80995775
C      2.50672326     0.04171846    -0.00376699
C      1.10385129     0.49441850     0.08306156
C      0.49176499     0.74924576     1.31591569
C     -0.83761187     1.17092129     1.37695203
N     -1.55973157     1.33585065     0.24678909
C     -2.97983858     1.77736543     0.32733332
C     -3.90745121     0.64965627    -0.03917167
C     -4.03831200    -0.47199654     0.79536677
C     -4.88729810    -1.52124252     0.44038282
C     -5.61432568    -1.46114445    -0.74580723
C     -5.49986433    -0.35034593    -1.57763423
C     -4.65295396     0.70203231    -1.22778393
C     -1.00084178     1.10275334    -0.96283653
C      0.32598325     0.68358134    -1.06478806
C      2.96159523    -1.06979059     0.71581449
C      4.28993638    -1.48619798     0.61569728
H      6.95949980    -1.02675204    -1.24933320
H      7.11819539    -0.75564290     0.52394591
H      6.59954152    -2.35691258    -0.11667952
H      5.50403690     0.76477553    -1.49242870
H      3.15653818     1.58539078    -1.38458312
H      1.04424124     0.63350077     2.24784972
H     -1.32751022     1.37316644     2.32611361
H     -3.08066906     2.63423902    -0.34951000
H     -3.18911206     2.13379738     1.34195427
H     -3.50017347    -0.54550170     1.73770238
H     -4.99712472    -2.38575930     1.09300119
H     -6.28444753    -2.27566541    -1.01596428
H     -6.08498469    -0.30310378    -2.49486087
H     -4.60195416     1.56215626    -1.89388125
H     -1.62430531     1.24429644    -1.84227342
H      0.73476520     0.48940850    -2.05585320
H      2.28531220    -1.63705702     1.35446422
H      4.66359967    -2.34660279     1.16535802
