38
bm_1_benzyl_1_methyl_4_4_bipyridinium conf 2 ff=MMFF E=151.279
C     -6.49021691     1.60802729     0.15773477
N     -5.11657213     1.06608823     0.15638966
C     -4.23460412     1.48111701    -0.77860647
C     -2.92934406     0.98712709    -0.79121398
C     -2.50845320     0.06040128     0.17014909
C     -1.13031836    -0.46989016     0.17731547
C     -0.56254896    -1.04731938    -0.96450705
C      0.74412545    -1.53794623    -0.93931838
N      1.48689779    -1.45961170     0.18676807
C      2.88276468    -1.97882356     0.19664364
C      3.87013406    -0.84430275     0.26361698
C      4.03069224     0.03232834    -0.82148071
C      4.93564768     1.09203655    -0.74542929
C      5.68940040     1.28578448     0.40936699
C      5.54562909     0.41818979     1.48896532
C      4.64274327    -0.64341435     1.41862243
C      0.97069317    -0.91149692     1.31060024
C     -0.33251225    -0.41348150     1.32566440
C     -3.44969870    -0.33634195     1.12760512
C     -4.74705843     0.17776393     1.10439621
H     -6.78049360     1.84782995    -0.86835747
H     -6.48623924     2.50444859     0.78256267
H     -7.17110222     0.85369224     0.56024498
H     -4.57859503     2.20947698    -1.50881817
H     -2.24249085     1.35149343    -1.55444071
H     -1.13309548    -1.13370022    -1.88871297
H      1.19956499    -1.98936179    -1.81716195
H      3.04914686    -2.58149688    -0.70302207
H      2.96184195    -2.64928782     1.06078565
H      3.47245831    -0.09864303    -1.74571457
H      5.06813609     1.76493264    -1.59101550
H      6.40282496     2.10654190     0.46300075
H      6.15134425     0.56610282     2.38178622
H      4.56957219    -1.31177847     2.27537793
H      1.60955634    -0.86644750     2.18922155
H     -0.70621092     0.03615688     2.24499533
H     -3.19067740    -1.06021760     1.89954842
H     -5.49294190    -0.11597766     1.83884977
