38
bm_1_benzyl_1_methyl_4_4_bipyridinium conf 1 ff=MMFF E=151.279
C      6.52913992     1.40942124     0.31600813
N      5.13894127     0.91236776     0.28626934
C      4.62283614     0.30352168     1.37591187
C      3.30700945    -0.16184905     1.37191418
C      2.49872761    -0.00468899     0.23963525
C      1.10369683    -0.48820493     0.21461421
C      0.18716724    -0.12433506     1.20756805
C     -1.12941885    -0.58381414     1.16206556
N     -1.54428467    -1.39072425     0.15873182
C     -2.95666629    -1.86248125     0.13139475
C     -3.88785731    -0.72923300    -0.20794768
C     -3.88324190    -0.15587427    -1.48971252
C     -4.73735466     0.90574844    -1.79163576
C     -5.60413994     1.40288199    -0.82170459
C     -5.62436124     0.83718270     0.45049398
C     -4.77302466    -0.22476724     0.75813157
C     -0.68594093    -1.76901118    -0.81392516
C      0.63819106    -1.32704034    -0.80480055
C      3.06921947     0.63684530    -0.86633302
C      4.38791481     1.09177511    -0.82193039
H      6.94303920     1.37320663    -0.69494129
H      6.50032884     2.43567567     0.69014091
H      7.12287386     0.76973517     0.97398044
H      5.26707043     0.19274293     2.24466915
H      2.92828726    -0.65895685     2.26434764
H      0.47838496     0.53793168     2.02217960
H     -1.85881228    -0.30302184     1.91790450
H     -3.05192366    -2.67162721    -0.60106911
H     -3.16428006    -2.28816788     1.12043648
H     -3.23300186    -0.52956717    -2.27745067
H     -4.74156721     1.34281506    -2.78878783
H     -6.27750794     2.22402320    -1.06211193
H     -6.31739470     1.22016722     1.19811222
H     -4.82868478    -0.65340710     1.75776745
H     -1.06299049    -2.42076781    -1.59805457
H      1.30278281    -1.65809618    -1.60220973
H      2.49027754     0.80737375    -1.77341221
H      4.84656472     1.60222018    -1.66521923
