38
bm_1_benzyl_1_methyl_4_4_bipyridinium conf 5 ff=MMFF E=151.281
C     -6.58511201     0.65298230     0.98829984
N     -5.17315283     0.39038677     0.64475523
C     -4.36221553     1.41946994     0.31652110
C     -3.02755068     1.19083707    -0.02156009
C     -2.50613712    -0.10848915    -0.02757101
C     -1.09532190    -0.37101552    -0.37570719
C     -0.26044481    -1.10962374     0.47037600
C      1.07271783    -1.33965040     0.12930887
N      1.58284473    -0.85483443    -1.02594591
C      3.01082932    -1.11041792    -1.36308670
C      3.91869773    -0.31296772    -0.46510661
C      3.97651183     1.08657245    -0.56325009
C      4.80776622     1.82029127     0.28432379
C      5.58956147     1.16706546     1.23370389
C      5.54766491    -0.22105452     1.33507816
C      4.71881350    -0.96006878     0.49008333
C      0.80518488    -0.14331683    -1.87146932
C     -0.53246792     0.11075682    -1.56339498
C     -3.38083446    -1.14756130     0.31204283
C     -4.71039022    -0.87854208     0.64050317
H     -7.15907557     0.61439884     0.05927680
H     -6.66151252     1.63853569     1.45467555
H     -6.92914490    -0.10894515     1.69239047
H     -4.78703687     2.42019390     0.32783809
H     -2.39897319     2.04641903    -0.26629208
H     -0.62945069    -1.50166241     1.41756095
H      1.73971713    -1.90129225     0.77878622
H      3.18457201    -0.85227662    -2.41354892
H      3.16900880    -2.19058201    -1.25944997
H      3.39401126     1.62916563    -1.30438459
H      4.86085763     2.90450981     0.20057666
H      6.24565842     1.74012526     1.88687497
H      6.17513347    -0.72564722     2.06826647
H      4.72495289    -2.04487568     0.58625678
H      1.25734443     0.22345361    -2.78953339
H     -1.13017844     0.68263996    -2.27248901
H     -3.04420091    -2.18374835     0.31245918
H     -5.40864788    -1.67123172     0.89765616
