38
bm_1_benzyl_1_methyl_4_4_bipyridinium conf 0 ff=MMFF E=151.279
C      6.59831658    -1.02907073     0.24662429
N      5.18511426    -0.63858528     0.07061303
C      4.32686434    -1.48780512    -0.53483473
C      2.98556460    -1.14054371    -0.70280183
C      2.50401006     0.08941200    -0.23857382
C      1.08739721     0.47304454    -0.40154253
C      0.45822494     0.43525192    -1.65144758
C     -0.88367848     0.79642740    -1.78409586
N     -1.60153529     1.18425800    -0.70697832
C     -3.03487426     1.55805838    -0.86169240
C     -3.92520788     0.51240911    -0.24489038
C     -4.02886330    -0.76759031    -0.81282057
C     -4.84305468    -1.73704903    -0.22549572
C     -5.56214030    -1.43949153     0.92932106
C     -5.47456221    -0.17112972     1.49721112
C     -4.66250281     0.80244938     0.91424030
C     -1.02639860     1.23663296     0.51628660
C      0.31321875     0.88676243     0.68835250
C      3.42314712     0.93640826     0.39218618
C      4.75771056     0.55458357     0.53757464
H      7.22092458    -0.13081809     0.23484912
H      6.89271566    -1.68506567    -0.57656179
H      6.67637327    -1.54641981     1.20592230
H      4.71884539    -2.44218957    -0.87769264
H      2.32004929    -1.85433466    -1.18719695
H      1.00665260     0.13402644    -2.54343019
H     -1.38686916     0.77276759    -2.74745023
H     -3.26272040     1.67832566    -1.92654733
H     -3.15615551     2.53895863    -0.38667517
H     -3.49624399    -1.03019199    -1.72405467
H     -4.93199348    -2.72590179    -0.67227584
H     -6.20529834    -2.19355789     1.38012535
H     -6.05356165     0.05907907     2.39032907
H     -4.63214805     1.78834735     1.37595066
H     -1.64692733     1.54960288     1.35243570
H      0.73538974     0.92523728     1.69199058
H      3.11680252     1.91124318     0.77012119
H      5.48741425     1.19645890     1.02499360
