14
SMD(acetonitrile)-opt r2scan/def2-svpd q=-1 m=2
C -3.95436633 2.17005626 0.13599603
C -5.21883666 1.60635457 -0.00668800
C -2.81080016 1.33145301 0.21588101
C -2.97929351 -0.07732953 0.14906931
C -4.25413724 -0.61732862 0.00659186
C -5.38832629 0.21123677 -0.07330645
H -4.36984917 -1.70411790 -0.04349348
H -6.38511560 -0.22185221 -0.18484923
H -3.81633548 3.25016819 0.18774048
H -6.09126231 2.26375934 -0.06757282
H -2.09643662 -0.71381393 0.21114156
N -1.53976490 1.88410028 0.35763380
O -1.41071498 3.16114908 0.41824117
O -0.51791812 1.10813724 0.42519079
