21
SMD(acetonitrile)-opt r2scan/def2-svp q=1 m=2
Fe 0.12541903 -0.00033458 -0.00098943
C 1.33144740 0.00163054 1.76477712
H 2.42282536 0.00248975 1.76588967
C 0.49876545 1.15510331 1.71497856
H 0.84295615 2.19027833 1.69172502
C -0.86310753 0.71856741 1.64108725
H -1.74157626 1.36282281 1.58416441
C -0.86215530 -0.71823698 1.64180069
H -1.73971961 -1.36379865 1.58566326
C 0.50029792 -1.15298944 1.71613337
H 0.84575765 -2.18776598 1.69409829
C 1.33130524 -0.00261714 -1.76643648
H 2.42268595 -0.00366289 -1.76748067
C 0.50053971 1.15234696 -1.71774362
H 0.84649698 2.18695891 -1.69571683
C -0.86212529 0.71807195 -1.64336008
H -1.73951625 1.36386532 -1.58722209
C -0.86349687 -0.71878302 -1.64256802
H -1.74214735 -1.36279889 -1.58565586
C 0.49826075 -1.15582721 -1.71655355
H 0.84198464 -2.19115670 -1.69332278
