13
SMD(acetonitrile)-opt r2scan/def2-svp q=1 m=2
C -0.12489956 -1.10280250 0.00532137
C -1.50058944 -0.68629769 -0.00855744
C -1.50061451 0.68621080 -0.00855896
C -0.12492216 1.10277637 0.00533191
N 0.67025654 0.00001574 0.01586394
C 2.12887807 0.00000308 -0.01250653
H 2.49180450 -0.89660385 0.50352457
H 2.48040811 -0.00075672 -1.05409519
H 2.49176677 0.89737555 0.50220857
H 0.30392499 2.10638786 0.01034625
H -2.35416988 1.36330135 -0.01234559
H -2.35412234 -1.36341596 -0.01234108
H 0.30400129 -2.10639110 0.01032713
