14
SMD(acetonitrile)-opt r2scan/def2-svp q=0 m=1
C 1.05368437 -0.00213323 0.00002004
C 0.34007645 1.21738997 0.00001740
C -1.04758029 1.21437363 0.00000755
C -1.74894026 -0.00625837 0.00000019
C -1.04355289 -1.22410611 0.00000268
C 0.34593990 -1.22302098 0.00001248
H 0.89296451 -2.16921971 0.00001439
H -1.59471480 -2.17017625 -0.00000309
O -3.09033165 0.04766907 -0.00000908
H -3.45230269 -0.85642176 -0.00001335
H -1.61148055 2.15091345 0.00000545
H 0.88526215 2.16469062 0.00002314
C 2.47846224 0.00038711 0.00003048
N 3.64624474 0.00236664 0.00003953
