46
SMD(acetonitrile)-opt r2scan/def2-svpd q=-1 m=1
C 7.20040561 -0.38308295 1.17514870
C 5.78712844 -0.15083298 0.71811765
C 5.50161819 0.19943981 -0.61241038
C 4.18530327 0.37488706 -1.04625867
C 3.10954408 0.21510216 -0.16096370
C 1.69871397 0.45461573 -0.63007302
C 3.38664548 -0.13011791 1.17000722
C 4.70394641 -0.31191201 1.59881031
O 0.80073452 -0.33860003 0.11509083
C -0.57334340 0.04169240 -0.02307317
C -1.35731141 -0.72790048 1.01902542
C -2.86765009 -0.44884918 0.95620562
C -3.57130338 -1.47444566 1.85470754
C -3.19701022 0.95576420 1.50552480
N -3.35498553 -0.69691681 -0.42923270
O -4.73332199 -0.44034791 -0.51134057
C -2.63299996 0.01336881 -1.52088691
C -2.90712831 1.53156190 -1.58359130
C -3.12471210 -0.60119722 -2.83812204
C -1.12472578 -0.26972860 -1.40578567
H 7.32565815 -0.12836679 2.23717947
H 7.48206938 -1.44330320 1.06064926
H 7.91553313 0.20846414 0.58641987
H 6.32572059 0.32899194 -1.32029403
H 3.98827151 0.63791730 -2.08981913
H 1.43801391 1.52681853 -0.50507123
H 1.63080784 0.23781843 -1.71189327
H 2.55877774 -0.26194410 1.86974190
H 4.89917360 -0.58297979 2.64092009
H -0.64034450 1.12865114 0.17458491
H -0.98012910 -0.48777228 2.02629602
H -1.18327527 -1.80410832 0.84835468
H -3.43229540 -2.49070142 1.45490906
H -4.64779868 -1.26555031 1.89660721
H -3.15976944 -1.44028051 2.87542423
H -3.19110925 0.95646674 2.60632367
H -2.49119290 1.72722105 1.17254396
H -4.20742385 1.21999222 1.15928100
H -2.30277755 2.11034626 -0.87372808
H -2.69955187 1.92507977 -2.59048534
H -3.97276713 1.68718659 -1.35804424
H -3.01966414 -1.69671885 -2.80987949
H -2.53967202 -0.21466589 -3.68706879
H -4.18408212 -0.36141596 -2.99552598
H -0.59885753 0.31052187 -2.18032953
H -0.93968016 -1.33900901 -1.60843932
