39
phenothiazine/ox q=1 m=2 E=-33335.312928eV model=uma-s-1p2p1
C        5.23286342       0.76040773      -0.48299380      -0.00657361       0.00140464       0.00219909
C        3.80753398       0.76636479      -0.00546065       0.00620335       0.00750967      -0.00406276
C        2.80654874       0.13212338      -0.73150163       0.01143251      -0.00477008       0.00823317
C        1.49417134       0.10900910      -0.27836084       0.00684852       0.00433007      -0.00646996
C        1.15613832       0.72658149       0.91607134       0.00068363      -0.00886420      -0.00106869
C       -0.25560564       0.73746024       1.45944769      -0.00111077      -0.00004047       0.00250951
C        2.14920390       1.36894750       1.64967355      -0.00080082       0.00113283      -0.00851118
C        3.45456477       1.38868219       1.19173433       0.00106345      -0.01156376      -0.00007216
N       -1.23524298       0.02783919       0.62337879       0.00434308      -0.00133455      -0.00480782
C       -1.88219769       0.74384173      -0.36885079      -0.00400541       0.00402538       0.00341245
C       -1.38009676       1.99513515      -0.78141191       0.00769228       0.00018943      -0.00391986
C       -2.03441611       2.72974474      -1.73587358       0.00101668       0.00091270       0.00600007
C       -3.21743124       2.25879730      -2.32211259       0.00626139       0.00508366      -0.00096054
C       -3.71454392       1.03642331      -1.95447803      -0.00324312       0.00976122      -0.00193255
C       -3.05182403       0.26351838      -0.98927379      -0.00347316       0.00399248      -0.00486780
S       -3.77835458      -1.23997968      -0.58481707       0.00002968      -0.00665480      -0.01040341
C       -2.55620857      -2.00549905       0.35011944      -0.00105783      -0.00649195       0.00224925
C       -2.75247317      -3.36409419       0.63908565       0.00151118      -0.00628081       0.00906096
C       -1.84031412      -4.04808172       1.39871647       0.00851355      -0.00091702       0.00215348
C       -0.70078385      -3.38580241       1.87564730      -0.00004016       0.00696557       0.00311336
C       -0.49563428      -2.05651532       1.61062788       0.00721736       0.00130586      -0.00322094
C       -1.43033521      -1.32384228       0.85116640      -0.00325337       0.00099845       0.00522630
H        5.74843718       1.67860395      -0.20306700      -0.01019223      -0.01314915      -0.00065312
H        5.28560562       0.65243162      -1.56568510       0.00299316       0.00199955       0.01471989
H        5.77999233      -0.07426222      -0.03960143       0.00024307       0.01389500      -0.00376042
H        3.05408264      -0.35284867      -1.66799269      -0.00673888       0.00205325       0.00190027
H        0.74103571      -0.39478635      -0.87346587       0.00340796      -0.00210329      -0.00294654
H       -0.29657000       0.28780488       2.45030436      -0.00281760       0.00417071       0.00541552
H       -0.61881456       1.75709543       1.57924657      -0.00261632       0.00057669       0.00767414
H        1.89994404       1.86058745       2.58386485       0.00735107      -0.00166489      -0.00301024
H        4.21434934       1.89637143       1.77353650      -0.00111993      -0.00272981      -0.00864749
H       -0.44808334       2.36196456      -0.37967724      -0.00319918       0.00891493       0.00167272
H       -1.62127099       3.67991546      -2.04524205      -0.00089889      -0.00648576      -0.00246960
H       -3.72531864       2.84905342      -3.07167909      -0.00789898      -0.00575944       0.00307276
H       -4.61819908       0.64897456      -2.40718862      -0.00194635      -0.00680710      -0.00032024
H       -3.62852542      -3.86356049       0.24549448      -0.00316196       0.00354266      -0.00307343
H       -1.99062671      -5.09629479       1.61510098      -0.00852425       0.00243776      -0.00287447
H        0.03620157      -3.92887376       2.45130893      -0.00343234       0.00222608      -0.00841548
H        0.41219753      -1.58323907       1.95169228      -0.00070660      -0.00181124       0.00785578
