26
conf 0 ff=MMFF E=-42.806 Rg=3.63 smiles=Cn1c(=O)c2cc3c(=O)n(C)c(=O)c3cc2c1=O
C     -4.72681910    -0.53385984     0.27940791
N     -3.29891247    -0.34147788     0.21021494
C     -2.65726948     0.22280427    -0.85738650
O     -3.11725366     0.66936737    -1.88961175
C     -1.22792980     0.19254873    -0.54775478
C     -0.14924457     0.64789243    -1.28721669
C      1.08238874     0.45098353    -0.68554393
C      2.42350517     0.79114602    -1.16040773
O      2.64943364     1.31443704    -2.23354145
N      3.29442882     0.39606116    -0.18301724
C      4.72765139     0.52372708    -0.28445615
C      2.65545731    -0.20074419     0.86837782
O      3.11937017    -0.69513065     1.87677259
C      1.22525054    -0.15993191     0.56400657
C      0.14679247    -0.61804080     1.30209063
C     -1.08506795    -0.41836655     0.70179585
C     -2.42531721    -0.76908565     1.17139927
O     -2.64731774    -1.34019984     2.22070280
H     -5.05748604    -0.53289784     1.32158989
H     -5.24081621     0.25117466    -0.28185236
H     -4.96335890    -1.50386913    -0.16787889
H     -0.25969639     1.11807739    -2.25729734
H      5.11780192    -0.37626400    -0.76894829
H      5.16996386     0.61133038     0.71162172
H      4.98666023     1.39513001    -0.89195636
H      0.25778526    -1.09481178     2.26888948
