56
cfg1 ip=3.2 off=0.0 par E=-31287.8694 fmax=0.050
C        4.95201599       0.12506068      -0.38590365       0.03501074       0.00248051      -0.01004973
N        3.50562746       0.03282830      -0.16898686      -0.00113373      -0.03065819       0.01436731
C        2.81388993      -1.08935552      -0.49112625       0.01147108       0.00470062      -0.01244052
C        1.46714567      -1.17383417      -0.34602486      -0.02267219      -0.02410226      -0.02302570
C        0.69914898      -0.06840199       0.13403231       0.00719959       0.02569848      -0.00166726
C       -0.71791804      -0.03697899       0.07348022      -0.00533148      -0.01654858      -0.01907619
C       -1.48627308      -1.12296898      -0.45586254      -0.01439129      -0.00618614      -0.01781938
C       -2.80843173      -0.99064609      -0.71879373      -0.00851355       0.00761515      -0.00601441
N       -3.48113040       0.16692579      -0.47553008      -0.00253055       0.00927837       0.02978974
C       -4.89890442       0.27856293      -0.82908666      -0.03435348       0.00699286      -0.01178509
C       -2.79943418       1.21681128       0.04824788      -0.01160733       0.00901193      -0.01306522
C       -1.47456162       1.14703324       0.33402444       0.02545929       0.03108427       0.00142887
C        1.47648660       1.08260611       0.48187950       0.00615200       0.01634066      -0.00876810
C        2.82028577       1.10432105       0.31453156       0.01972006       0.00200721      -0.00753594
H        5.33501640      -0.85196370      -0.66461122      -0.00168643      -0.01526645      -0.00020430
H        5.17396834       0.82975566      -1.18446917      -0.02916650       0.02441530      -0.02417770
H        5.44426927       0.45265052       0.52754322       0.00270405       0.00734309       0.01204999
H        3.39590080      -1.90759172      -0.89115290       0.00379388      -0.00952733       0.00669749
H        1.00123938      -2.09821399      -0.64989635      -0.00814663      -0.00372049      -0.02454296
H       -1.03290270      -2.07055195      -0.70141814       0.01467420      -0.01222709      -0.02389092
H       -3.38819425      -1.78919941      -1.16141925      -0.00579238      -0.00903864       0.00822692
H       -5.46156608      -0.53088706      -0.36837684      -0.00410431      -0.01368289       0.00473330
H       -5.28368670       1.22796384      -0.46922746       0.00138562       0.01198177       0.00981231
H       -5.02747858       0.23463829      -1.90844542       0.03238152      -0.00530784      -0.03199216
H       -3.36896257       2.12189017       0.20583820      -0.00375500       0.00200405       0.00977066
H       -1.01298864       2.03959797       0.72664944       0.00987941       0.01824233      -0.01638749
H        1.01649241       1.98601064       0.85079815      -0.01154796       0.02383089      -0.01224217
H        3.41127543       1.98417628       0.53019570       0.00308225      -0.00116173       0.01285110
C        4.73158634      -1.30758502       3.81078328      -0.01584707      -0.00117824      -0.00546540
N        3.32721179      -1.17105946       3.40927072      -0.00556664      -0.01378126      -0.02709443
C        2.66840129      -2.22928013       2.86508689       0.02284522      -0.00932709       0.01263216
C        1.34606408      -2.18425697       2.57627654      -0.00761010      -0.02691370      -0.01103916
C        0.56182007      -1.01956540       2.85209297       0.01567129       0.01565478       0.02125047
C       -0.85369802      -1.02297612       2.77911239      -0.01269686      -0.02513033       0.00476979
C       -1.60485094      -2.19394526       2.44485738      -0.04621027       0.00161487       0.01788052
C       -2.95285125      -2.23598391       2.60042492       0.00955474       0.00266333       0.00681813
N       -3.66134277      -1.16967249       3.05496345       0.00096946       0.02743208      -0.00914059
C       -5.09994649      -1.27230315       3.32367429       0.01675121       0.00401936      -0.00251662
C       -2.99094758      -0.02749632       3.36462990      -0.00372131      -0.00078694       0.01007013
C       -1.64697596       0.07809051       3.23278894      -0.01099164       0.02369557       0.01157680
C        1.30242332       0.07413930       3.40221542       0.02789074      -0.01074466       0.01334258
C        2.62871692      -0.03515786       3.66938319       0.00743352      -0.00573872       0.00759918
H        5.24264048      -1.95676377       3.10294354       0.01417172       0.02273675       0.03075404
H        5.20663809      -0.32974320       3.80619263      -0.00667734      -0.00492392       0.00659007
H        4.80268595      -1.73771578       4.80917001      -0.00474727       0.01091473      -0.00793797
H        3.25988398      -3.11921784       2.70030955       0.00371011      -0.00890336      -0.00558387
H        0.90555637      -3.07910368       2.16348271       0.00140918      -0.00377000       0.01767634
H       -1.12584773      -3.09537731       2.09558379       0.00860847      -0.01306985       0.01550010
H       -3.52525659      -3.12730637       2.38465220      -0.00395931      -0.01268078      -0.00096020
H       -5.27468104      -1.56282082       4.35900649       0.00568398      -0.00383315      -0.01280272
H       -5.56649247      -0.30713163       3.13793539      -0.01597104      -0.03690658       0.00851337
H       -5.54008867      -2.01498209       2.66294114       0.00661661      -0.00050258       0.00901610
H       -3.59350854       0.78430546       3.74755788      -0.00639783       0.01362876       0.00172011
H       -1.20042227       1.01753034       3.52097273      -0.00078746      -0.00563637       0.01594157
H        0.82822590       1.00850452       3.65976431      -0.00879140      -0.00201964       0.01887194
H        3.18984604       0.77300455       4.11762059       0.00047836       0.00788724       0.00697535
