14
SMD(acetonitrile)-opt r2scan/def2-svp q=0 m=1
C 0.65312468 1.37562053 0.00003525
C -0.73730509 1.26803358 0.00002931
C -1.30984532 -0.00910433 0.00006465
C -0.52676456 -1.17315251 0.00010521
C 0.85858173 -1.04793648 0.00011074
C 1.45823611 0.22483449 0.00007577
C 2.92846502 0.35882044 0.00008153
O 3.70381444 -0.57832317 0.00011405
H 3.29716571 1.41714194 0.00005206
H 1.49756344 -1.93591671 0.00014224
H -1.00476583 -2.15560591 0.00013213
Cl -3.04689178 -0.15989237 0.00005795
H -1.37240666 2.15682376 -0.00000182
H 1.12378086 2.36452067 0.00000788
