14
SMD(acetonitrile)-opt r2scan/def2-svpd q=-1 m=2
C 0.59915361 1.37819694 0.00003773
C -0.78111324 1.26653394 0.00002949
C -1.37139538 -0.01870155 0.00006120
C -0.57268231 -1.17594482 0.00010091
C 0.81099838 -1.05800921 0.00010881
C 1.45617240 0.22853812 0.00007751
C 2.87873371 0.35997971 0.00008400
O 3.71540943 -0.59664433 0.00011606
H 3.25048273 1.41617599 0.00005680
H 1.43479067 -1.95569478 0.00013942
H -1.04244661 -2.16306306 0.00012523
Cl -3.13247493 -0.16702411 0.00005110
H -1.41073381 2.15952749 -0.00000131
H 1.05428483 2.37465231 0.00001297
