24
anthraquinone_parent/neu q=0 m=1 E=-18743.391955eV conf=0 model=uma-s-1p2p1
O       -0.12824842       2.55705800       0.80147727      -0.00796139      -0.00639659      -0.00213000
C       -0.07029569       1.40157243       0.43930466       0.00282530      -0.00337731       0.00245664
C        1.24010541       0.73577100       0.18613680      -0.00165002      -0.00280869      -0.00449125
C        2.41023861       1.46354750       0.37209325       0.00171157       0.00399696       0.00224976
C        3.63808610       0.86738818       0.14355533      -0.00091186      -0.00298033      -0.00216116
C        3.70459868      -0.45883416      -0.27206619      -0.00206074       0.00266929       0.00216729
C        2.54323661      -1.18793593      -0.45878844       0.00281387      -0.00344376      -0.00223251
C        1.30679527      -0.59405599      -0.23070873      -0.00237565       0.00268091       0.00458259
C        0.07029907      -1.40163579      -0.43932304       0.00250643       0.00119968      -0.00333156
O        0.12824693      -2.55700616      -0.80145831      -0.00857150       0.00772874       0.00313519
C       -1.24009855      -0.73577510      -0.18610653       0.01113791       0.00417406       0.00576663
C       -2.41025294      -1.46349805      -0.37226714       0.00561577       0.00104243       0.00062814
C       -3.63808514      -0.86736627      -0.14361619       0.00210013      -0.00484365      -0.00595125
C       -3.70460004       0.45881662       0.27212495      -0.00449274       0.00361965       0.00563560
C       -2.54322186       1.18787891       0.45896253       0.01145771       0.00160496      -0.00038761
C       -1.30680176       0.59406713       0.23068465       0.00885271      -0.00230080      -0.00587221
H        2.33205008       2.49256164       0.69559214       0.00419230       0.00608328       0.00082996
H        4.54884854       1.43386918       0.28830352      -0.00684775      -0.00059398      -0.00047441
H        4.66696714      -0.92109365      -0.44959797      -0.00661975      -0.00024314       0.00068343
H        2.56840996      -2.21989534      -0.78135961       0.00476760      -0.00569766      -0.00102059
H       -2.33205783      -2.49253064      -0.69568936       0.00058595      -0.01212614      -0.00369004
H       -4.54885909      -1.43379994      -0.28851388      -0.00862976      -0.00577896      -0.00330686
H       -4.66695830       0.92102927       0.44980666      -0.00754017       0.00431424       0.00341854
H       -2.56840280       2.21986720       0.78145362      -0.00090581       0.01147726       0.00349563
