13
SMD(acetonitrile)-opt r2scan/def2-svpd q=-1 m=2
C 0.14347998 -1.23926437 0.00000790
C 1.52553684 -1.21912052 -0.00003526
C 2.25809451 -0.00014496 -0.00005821
C 1.52572293 1.21894229 -0.00003617
C 0.14366907 1.23928206 0.00000698
C -0.61539956 0.00006663 0.00003054
C -2.00731984 0.00017354 0.00007577
N -3.19684002 0.00026532 0.00010985
H -0.39376728 2.19182919 0.00002245
H 2.06525430 2.17214925 -0.00005334
H 3.35036031 -0.00022768 -0.00009129
H 2.06492756 -2.17240690 -0.00005172
H -0.39409684 -2.19173238 0.00002409
