52
MV_solv neu q=0 m=1 E=-30099.5953eV fmax=0.043
C        4.95270897       0.44895765      -0.42822969       0.01157493       0.00846946      -0.00696553
N        3.51834834       0.35130491      -0.24867453       0.01211512       0.00764511       0.01220824
C        2.67018209       1.07287960      -1.06193598      -0.00389289      -0.01193868      -0.00029364
C        1.33635297       0.93008020      -1.03211711      -0.00178160       0.00569899       0.01566405
C        0.67499238      -0.00228884      -0.12055213      -0.01223364       0.00596476      -0.00237896
C       -0.67840852      -0.09950196       0.01164079       0.01537941      -0.00315494       0.00345769
C       -1.63054684       0.72493464      -0.73178337       0.02118782      -0.00249701       0.02502582
C       -2.95226646       0.67420201      -0.49921703       0.02792385      -0.00465904      -0.00912143
N       -3.51186335      -0.15179002       0.45018089      -0.01255362       0.01426553       0.00724202
C       -4.94741332      -0.28406866       0.59451631      -0.01299155      -0.00729062       0.00896479
C       -2.66818506      -1.01044134       1.12216170       0.00511809      -0.00056349      -0.01354765
C       -1.33911851      -1.01776702       0.93775331       0.00024349       0.01572310       0.00682847
C        1.62815172      -0.79704491       0.65380830      -0.02095899       0.02535014      -0.00127375
C        2.95435744      -0.60447239       0.56752530      -0.02590262      -0.00145515      -0.00228750
H        5.25654161       1.49502540      -0.43687602      -0.00129996       0.01383531       0.01380202
H        5.44880648      -0.02581582       0.41618133      -0.00234922      -0.00144260      -0.01471598
H        5.27804597      -0.03442888      -1.35222490      -0.00474201      -0.03885895       0.01615522
H        3.15693956       1.77184745      -1.72807113       0.00334155       0.00261688      -0.01922631
H        0.75848852       1.54309543      -1.70625776      -0.01310115       0.01785621      -0.01257475
H       -1.28213322       1.41871022      -1.48168407      -0.02785703       0.01001742      -0.01658676
H       -3.65068191       1.29594200      -1.04204382      -0.01487372       0.00035454      -0.00743164
H       -5.21637586      -0.29743324       1.64987455       0.00144016       0.00785727       0.01461520
H       -5.32038946      -1.18887494       0.10897496       0.00580365       0.01498507      -0.03965055
H       -5.43005419       0.58369725       0.14903328       0.00431850      -0.01573692      -0.00490666
H       -3.15360095      -1.68023625       1.81838705      -0.00716004      -0.02292197       0.00268572
H       -0.76407861      -1.72621897       1.51344287       0.01418964      -0.01681672       0.01709777
H        1.27760261      -1.55494674       1.33780843       0.02686920      -0.01728228       0.00809631
H        3.65414642      -1.18628909       1.15148840       0.01200408      -0.00475736      -0.00019200
C        3.39567279      -3.79120823      -4.55802522      -0.00241876       0.00456768       0.01184733
C        4.15265568      -2.78189235      -3.82617744      -0.00477911       0.00115041      -0.00121014
N        4.74960902      -1.98767097      -3.25333612       0.00976447       0.01781041       0.01517959
H        4.07619653      -4.45984050      -5.08151422       0.01443444       0.00682475      -0.00318772
H        2.79146631      -4.37420946      -3.86575465      -0.00731596       0.00431752       0.00335131
H        2.74305323      -3.30977004      -5.28396595       0.00348589      -0.00015118       0.00466681
C        3.69124426       4.27182678       3.75495764       0.00046722      -0.01377986      -0.01357031
C        4.58643439       3.58295066       2.83152183      -0.00473683       0.03009648       0.02676181
N        5.29595858       3.04797750       2.10643097       0.00873557      -0.03060888      -0.02955878
H        2.65737391       4.04364970       3.50470461       0.00365388      -0.01110241      -0.01594165
H        3.88863090       3.94933026       4.77564325       0.00854984      -0.01012651      -0.01170460
H        3.84503460       5.34731866       3.68737355       0.00176697      -0.00764711      -0.00773809
C       -3.62057082      -4.32960004      -3.80609709       0.01170615       0.01702057       0.01612583
C       -4.36509357      -3.62878394      -2.76610693      -0.01763111      -0.00842701      -0.00320650
N       -4.95502598      -3.08058848      -1.94951272      -0.00472414       0.02014394       0.02497334
H       -2.55327017      -4.18530520      -3.65266404       0.01452978       0.00813309       0.00067818
H       -3.84307610      -5.39451113      -3.76997097      -0.01231834       0.00949863       0.00455206
H       -3.89501341      -3.94082990      -4.78501768      -0.00061454      -0.00269410       0.00582656
C       -3.46192004       3.76454431       4.50568897      -0.00330338      -0.00960919      -0.00001752
C       -4.35779842       2.87006289       3.78059155       0.00090344       0.00077494       0.00134160
N       -5.06802336       2.16727485       3.21704942       0.01012350      -0.00684426      -0.01219667
H       -4.04310222       4.46155311       5.10639930      -0.00787580       0.00253322      -0.00279546
H       -2.81516683       3.18616092       5.16274458      -0.00291281      -0.00409252      -0.00791897
H       -2.84700270       4.32662041       3.80510724      -0.01930167      -0.01905276      -0.00694811
