23
phenothiazine_parent/ox q=1 m=2 E=-24909.137297eV conf=0 model=uma-s-1p2p1
C       -3.57369368      -0.91260911       0.10553041       0.00038927      -0.00860892      -0.01148988
C       -3.75511161       0.29385125      -0.59049861       0.00022714       0.00721398       0.00114352
C       -2.67587809       1.07869074      -0.90671268      -0.00022644      -0.01387478      -0.00269603
C       -1.38344672       0.67874490      -0.53562446       0.00188947      -0.00009456       0.00655066
C       -1.20294820      -0.52814365       0.16111247       0.00489717      -0.00725209      -0.00102693
C       -2.32001399      -1.31978802       0.47590770       0.01223424       0.00310049       0.00134863
N        0.04260089      -0.95295270       0.54267189      -0.00103062       0.00861575       0.00131012
C        1.24091031      -0.32445572       0.32702931      -0.00676629      -0.00582237      -0.00396486
C        2.42074081      -0.92572128       0.79589188      -0.00175650       0.00307652      -0.00038208
C        3.62906502      -0.31577879       0.58837798      -0.00995666      -0.00838633      -0.01343338
C        3.70084094       0.91134921      -0.09135864       0.01168705       0.00269960       0.00512551
C        2.55942564       1.51166881      -0.55710907      -0.00708252      -0.00656081      -0.00731573
C        1.31217899       0.90188279      -0.35541120      -0.00115266      -0.00177520       0.00769823
S       -0.07734081       1.71703590      -0.96910122       0.00078289      -0.00009543      -0.00084757
H       -4.42919603      -1.52751670       0.34768519      -0.00212525       0.00669489       0.00785743
H       -4.74870481       0.60536796      -0.87823424      -0.01427590       0.00379745      -0.00690554
H       -2.80863159       2.00736101      -1.44693839       0.00267358       0.00123400       0.00739183
H       -2.17629698      -2.25000218       1.01179853       0.00189236       0.00018127       0.00147283
H        0.08196055      -1.83137289       1.04197275      -0.00051928       0.00740549      -0.00640638
H        2.36175358      -1.87293601       1.31780534      -0.00271533      -0.00053064       0.00194979
H        4.53404184      -0.78556470       0.94712987       0.00321761       0.00589511       0.00985891
H        4.65938128       1.38439597      -0.24851514       0.01106393       0.00509319      -0.00538339
H        2.60836270       2.45649318      -1.08340972      -0.00334730      -0.00200670       0.00814431
