19
bm_5_hydroxy_1_4_naphthoquinone_juglone conf 0 ff=MMFF E=25.572
O      2.26159315    -2.15129425    -0.12742372
C      1.77602281    -1.02882903    -0.08333421
C      2.65189063     0.15909229    -0.08149254
C      2.15648608     1.39754166    -0.03415139
C      0.70428475     1.64486925     0.01894192
O      0.26528998     2.78923433     0.06207852
C     -0.20478616     0.48435358     0.01886902
C     -1.59291192     0.66489655     0.06820907
O     -2.18746606     1.89704729     0.11858691
C     -2.44911423    -0.43470651     0.06797565
C     -1.92536663    -1.72644157     0.01837165
C     -0.54373814    -1.91674144    -0.03100693
C      0.31650911    -0.81003363    -0.03072340
H      3.71853967    -0.03101316    -0.12070402
H      2.79724875     2.27188157    -0.03267038
H     -1.48382575     2.58485143     0.11331612
H     -3.52538840    -0.28268153     0.10653676
H     -2.59435755    -2.58421531     0.01822479
H     -0.14091009    -2.92781153    -0.06960381
