14
SMD(acetonitrile)-opt r2scan/def2-svp q=1 m=2
C 1.52396542 -1.23620673 -0.00001568
C 2.21589003 0.00003775 -0.00003618
C 1.52394359 1.23626999 -0.00002105
C 0.14802338 1.24952592 0.00001516
C -0.56497138 0.00001309 0.00003766
C 0.14804546 -1.24948716 0.00002060
H -0.41910506 -2.18286662 0.00003727
C -1.95431976 0.00000051 0.00007652
C -3.18739359 -0.00001414 0.00012126
H -4.26958409 -0.00002322 0.00015441
H -0.41914345 2.18289547 0.00002790
H 2.08716358 2.17232093 -0.00003778
H 3.30962789 0.00004732 -0.00006402
H 2.08720193 -2.17224773 -0.00002845
