14
SMD(acetonitrile)-opt r2scan/def2-svp q=1 m=2
C 0.75824919 -1.16476275 0.23443412
C -0.75845622 -1.16502574 -0.23499126
H -1.25509512 -2.03449830 0.21560194
H -0.77173829 -1.18516441 -1.33681002
O -1.31453642 -0.00032388 0.27798707
C -0.75891594 1.16471567 -0.23460009
C 0.75815013 1.16487489 0.23403501
H 1.25457997 2.03418451 -0.21709642
H 0.77194402 1.18543289 1.33584055
O 1.31397051 0.00002005 -0.27879772
H -1.25567720 2.03379457 0.21659950
H -0.77254136 1.18546270 -1.33641256
H 1.25525693 -2.03422943 -0.21575763
H 0.77140149 -1.18458158 1.33625666
