35
mv_ip1/s0 q=0 m=2 E=-41245.204029eV conf=0 model=uma-s-1p2p1
C        5.45791302       0.04416593      -1.12821570      -0.02008718       0.01383799       0.00321947
N        4.08123617       0.13541750      -0.67635758      -0.00809810       0.00813830      -0.01569727
C        3.71116790      -0.53576752       0.47476752      -0.00995214       0.01056957       0.01725488
C        2.55755080      -0.31191050       1.11194406      -0.00097160       0.01831445       0.01342225
C        1.65656541       0.77713707       0.63373794      -0.01552755      -0.02212844       0.00148670
C       -1.61805281       0.46171728      -0.08609249       0.02070602       0.01940784      -0.00726620
C       -1.85125693      -0.82510734      -0.77254007       0.04348046       0.01569054      -0.01142794
C       -3.07423746      -1.35922265      -0.87365880       0.00581208      -0.02010718      -0.00683730
N       -4.18518251      -0.81932891      -0.27137473       0.00135679       0.00259894      -0.01220711
C       -5.49013617      -1.41131321      -0.49181677       0.01195004      -0.01213351       0.01105100
C       -4.01657531       0.30631172       0.48289749      -0.00740714      -0.00227852      -0.01111411
C       -2.82960216       0.91463043       0.63628403      -0.03161606       0.01186931       0.01995864
C        1.79927131       0.96088913      -0.87940128      -0.01806436      -0.00225650      -0.01136951
C        3.20803469       0.97299493      -1.28925499       0.02886102      -0.01140290      -0.00843679
F       -1.27103047       1.44754266      -1.08476114      -0.01133522      -0.00553543       0.00130479
P       -0.14831054       0.53259031       1.07683505       0.04075810       0.00909272       0.03049973
F        1.13385233      -0.15834599      -1.46626003       0.00133978      -0.00534449       0.00085429
F        0.03704225      -1.09207564       1.02774087       0.01911851      -0.00697492       0.00383057
F        2.08623015       1.98108204       1.21386161       0.02289966      -0.01154175      -0.02493387
F       -0.35420073       2.13983262       1.20132244       0.00808337      -0.00783001      -0.01032947
F       -0.44716184       0.40468233       2.61689858      -0.02558075       0.02190093       0.00000282
H        5.78767177      -0.99288428      -1.09097421       0.01181602      -0.01232591       0.01744076
H        6.11707872       0.65140193      -0.50558655       0.00037671       0.00240097       0.00532521
H        5.52182181       0.39009981      -2.15689738      -0.00171661      -0.02290053       0.01046630
H        4.42860221      -1.26371055       0.82729286       0.01740189      -0.01186945      -0.01028821
H        2.31129749      -0.87362197       1.99841679      -0.01612247       0.01336182       0.00193506
H       -1.01594501      -1.32588656      -1.23476082       0.01127977       0.00648266      -0.01342990
H       -3.24709455      -2.27692034      -1.42006155      -0.01976183       0.00692832       0.02271006
H       -6.19079223      -1.02691329       0.24564453      -0.01155800       0.01924433      -0.01293922
H       -5.43029261      -2.49341328      -0.37592935      -0.02722176       0.01039607       0.01749768
H       -5.87311898      -1.18419616      -1.48883440      -0.01268103      -0.00926447      -0.01350519
H       -4.90694085       0.67652833       0.97425675      -0.01113814      -0.00457942      -0.00059913
H       -2.76015521       1.79343324       1.25893607       0.00672578      -0.02705345      -0.01165462
H        1.26531203       1.84774847      -1.21588183      -0.00209815       0.01268357       0.00683198
H        3.54943634       1.51240065      -2.15777230      -0.00102807      -0.00739159      -0.00305630
