36
conf 5 ff=MMFF E=112.231 Rg=4.24 smiles=Cc1ccc(CNC2=C(Br)C(=O)C(=O)c3ccccc32)cc1
C      6.07913076     0.67199445    -0.00451369
C      4.61962188     0.39205868     0.19954012
C      3.67699238     1.41833653     0.07570047
C      2.32126129     1.16442056     0.29493799
C      1.88514925    -0.11726277     0.65748630
C      0.41841794    -0.38970089     0.87773404
C      2.83157577    -1.14218521     0.78690265
C      4.18761870    -0.88689293     0.56765192
O     -3.87783216    -3.18485213    -1.93763394
C     -3.42832964    -2.33892801    -1.17706696
C     -4.34073968    -1.65651989    -0.17921442
O     -5.35885773    -2.20146566     0.21994981
C     -3.95303996    -0.31371088     0.26972212
C     -4.91533135     0.51362563     0.86614384
C     -4.57854767     1.81412031     1.22860461
C     -3.29151937     2.28404640     0.98534315
C     -2.33471757     1.44594216     0.40183926
C     -2.63784331     0.11722587     0.05764599
C     -1.61179869    -0.79795392    -0.51949367
N     -0.27098664    -0.39859036    -0.41923495
C     -1.99979690    -1.92954138    -1.14952944
Br    -0.77544042    -3.08599860    -1.98169305
H      6.22481721     1.47000196    -0.74016514
H      6.59811363    -0.21544816    -0.38177575
H      6.53774156     0.97480716     0.94178939
H      3.99192108     2.42283351    -0.19837271
H      1.60183460     1.97176724     0.17546753
H      0.28497948    -1.35835849     1.37523915
H      0.00680865     0.37344044     1.54703866
H      2.52302756    -2.14874009     1.06105025
H      4.90623225    -1.69563419     0.68284525
H     -5.92862276     0.15114593     1.03159615
H     -5.32201775     2.46425822     1.68381538
H     -3.02778031     3.30657899     1.24695961
H     -1.34359198     1.85297155     0.20935361
H      0.30154988    -0.94779206    -1.06819079
