36
conf 6 ff=MMFF E=112.231 Rg=4.24 smiles=Cc1ccc(CNC2=C(Br)C(=O)C(=O)c3ccccc32)cc1
C      6.03495233     0.99985078    -0.23365810
C      4.59076333     0.64776374    -0.03235413
C      4.22561056    -0.63694575     0.38482508
C      2.88317752    -0.95805590     0.60129125
C      1.88323908     0.00636172     0.41973261
C      0.43122853    -0.33797321     0.63683478
C      2.25227665     1.29425182     0.00803079
C      3.59447485     1.61396951    -0.20837266
O     -3.66967269    -3.48194406    -2.10087582
C     -3.27681361    -2.58163375    -1.37203976
C     -4.23752187    -1.91050422    -0.41260873
O     -5.22870918    -2.49438466    -0.00091404
C     -3.93006827    -0.53078740    -0.01657212
C     -4.94374651     0.26558203     0.53520773
C     -4.68374184     1.59667732     0.84612509
C     -3.42179511     2.12712218     0.59598857
C     -2.41316035     1.32023963     0.05750831
C     -2.63822320    -0.03637938    -0.23364625
C     -1.55627791    -0.91603231    -0.76186546
N     -0.24088659    -0.43880680    -0.66530998
C     -1.87351796    -2.09252302    -1.34770494
Br    -0.57716968    -3.21235099    -2.11867857
H      6.60671808     0.12780851    -0.56810076
H      6.14525379     1.77352099    -1.00079464
H      6.46460189     1.36674833     0.70351972
H      4.98633392    -1.39897460     0.54087077
H      2.62737953    -1.96803117     0.91438523
H     -0.02996105     0.42806866     1.26949930
H      0.34546825    -1.29117810     1.17317741
H      1.49086962     2.05465981    -0.15225942
H      3.85675752     2.62224752    -0.52125156
H     -5.93739065    -0.14564002     0.70577938
H     -5.46745050     2.22263352     1.26639208
H     -3.21814007     3.17269053     0.81708856
H     -1.44378366     1.77355442    -0.14216140
H      0.36892525    -0.98160569    -1.28503680
