36
conf 1 ff=MMFF E=112.210 Rg=4.24 smiles=Cc1ccc(CNC2=C(Br)C(=O)C(=O)c3ccccc32)cc1
C      6.01842212    -0.12689379    -0.82130886
C      4.59051807     0.08313567    -0.41245247
C      3.58659835     0.20180899    -1.37951985
C      2.25271993     0.36453439    -0.99891248
C      1.89784837     0.40645672     0.35625934
C      0.45417951     0.56505548     0.76190115
C      2.90182758     0.26327478     1.32298371
C      4.23589848     0.10090469     0.94098239
O     -3.71399559    -2.80123045     3.10443647
C     -3.30330512    -1.86813304     2.42858931
C     -4.23733465    -0.73658497     2.05297977
O     -5.21278293    -0.46986478     2.73870987
C     -3.92431912     0.00805104     0.82719469
C     -4.92428532     0.78267942     0.22202167
C     -4.66109334     1.43363986    -0.97925547
C     -3.40993051     1.30022194    -1.57359816
C     -2.41454665     0.53569757    -0.95466534
C     -2.64209284    -0.10411496     0.27606665
C     -1.57278762    -0.88048570     0.96685876
N     -0.25733373    -0.69623349     0.51636679
C     -1.90228448    -1.75259155     1.94605603
Br    -0.62487210    -2.83331465     2.80001382
H      6.22841784     0.36825759    -1.77522529
H      6.22452225    -1.19663602    -0.92471764
H      6.70344682     0.29582456    -0.07882936
H      3.83649250     0.16436919    -2.43757161
H      1.48597643     0.44723741    -1.76631433
H      0.01030947     1.39333228     0.19911135
H      0.38805053     0.82825533     1.82492433
H      2.65489092     0.27284124     2.38244721
H      4.99849649    -0.01365421     1.70848925
H     -5.91027944     0.86409008     0.67668211
H     -5.43444438     2.02920899    -1.45870744
H     -3.20448766     1.78930763    -2.52341899
H     -1.45390341     0.43830623    -1.45740192
H      0.33546325    -1.45675349     0.86377000
