36
conf 9 ff=MMFF E=115.628 Rg=3.87 smiles=Cc1ccc(CNC2=C(Br)C(=O)C(=O)c3ccccc32)cc1
C      4.77571083     1.83713685    -0.96640787
C      3.72310609     0.80777394    -0.67812337
C      3.75453069     0.07670826     0.51458035
C      2.79456599    -0.90527421     0.76938390
C      1.79538773    -1.18454930    -0.17287934
C      0.73324498    -2.21671248     0.11855463
C      1.77079601    -0.45693493    -1.37032562
C      2.73103828     0.52505784    -1.62338452
O     -4.52831257    -2.82640146    -1.16774341
C     -3.85521502    -2.06839567    -0.48266625
C     -4.41967562    -0.73118823    -0.06526191
O     -5.62375517    -0.56662189     0.06118319
C     -3.45849535     0.35447476     0.15437432
C     -3.92564970     1.67780496     0.16707605
C     -3.02598519     2.72753035     0.31142520
C     -1.66900801     2.45233560     0.43451150
C     -1.21336546     1.12771850     0.43467307
C     -2.10158491     0.04156220     0.31563280
C     -1.63768224    -1.38361875     0.36654860
N     -0.35546490    -1.60101962     0.87734014
C     -2.47741969    -2.37585704    -0.01646117
Br    -2.05257362    -4.20675770     0.06638772
H      5.12738053     2.30583996    -0.04127882
H      5.62638625     1.37068038    -1.47263449
H      4.37814389     2.63451727    -1.60307556
H      4.52895139     0.26798162     1.25454996
H      2.83354497    -1.45457057     1.70802066
H      1.16508033    -3.03322350     0.70872554
H      0.38513645    -2.65634766    -0.82337234
H      1.00003353    -0.64933200    -2.11394056
H      2.69883272     1.06976931    -2.56469302
H     -4.98759999     1.88904541     0.05079776
H     -3.38036004     3.75551187     0.31534016
H     -0.95591099     3.26866170     0.53108112
H     -0.13976352     0.97741898     0.51779110
H     -0.01404865    -0.85072477     1.47379469
