36
conf 0 ff=MMFF E=112.210 Rg=4.24 smiles=Cc1ccc(CNC2=C(Br)C(=O)C(=O)c3ccccc32)cc1
C      6.10781331    -0.24014962     0.18903293
C      4.63247494     0.01896071     0.26916956
C      3.75675470    -0.99173218     0.67999044
C      2.37999087    -0.76106127     0.72336974
C      1.85337536     0.48341241     0.35170240
C      0.36475226     0.72183294     0.38388116
C      2.73011809     1.48638651    -0.08234605
C      4.10723917     1.25453445    -0.12496516
O     -3.93976638     1.35950125    -3.52221221
C     -3.48122002     1.05847035    -2.42895177
C     -4.40124328     0.92152763    -1.23366830
O     -5.46570720     1.51938717    -1.18524382
C     -3.96207763     0.03137340    -0.15211004
C     -4.90469806    -0.43895804     0.77334284
C     -4.51453013    -1.34094419     1.75837269
C     -3.19348906    -1.77548077     1.80816297
C     -2.25754577    -1.28971297     0.88816184
C     -2.61657403    -0.35180363    -0.09533490
C     -1.61611488     0.20808337    -1.04873620
N     -0.26166839     0.01396333    -0.74035220
C     -2.03528822     0.82474927    -2.17655614
Br    -0.83806004     1.47439773    -3.47022994
H      6.67589421     0.67972510     0.36322718
H      6.41936400    -0.96279969     0.95057312
H      6.36544656    -0.63372886    -0.79901666
H      4.14115515    -1.96839780     0.96578585
H      1.71514335    -1.56256608     1.03833963
H      0.15335713     1.79591958     0.31096862
H     -0.03425229     0.38189215     1.34566732
H      2.34951268     2.45636445    -0.39509845
H      4.76915880     2.04595899    -0.47029302
H     -5.94311481    -0.11663560     0.71568169
H     -5.24193905    -1.71652714     2.47423383
H     -2.88666431    -2.49675484     2.56261316
H     -1.23749765    -1.66561012     0.94533235
H      0.30990063     0.19100079    -1.57249449
