36
conf 7 ff=MMFF E=112.231 Rg=4.24 smiles=Cc1ccc(CNC2=C(Br)C(=O)C(=O)c3ccccc32)cc1
C      6.06577285     0.57150014    -0.57836305
C      4.60416990     0.48192335    -0.25299404
C      3.64674174     0.95816194    -1.15502906
C      2.28738133     0.90215074    -0.83951924
C      1.86148946     0.38311093     0.39074641
C      0.39166745     0.31047648     0.71995036
C      2.82238752    -0.08770752     1.29515791
C      4.18202938    -0.03083898     0.97855811
O     -3.68845340    -3.85604835     1.15531853
C     -3.29819364    -2.71416507     0.95557761
C     -4.27642192    -1.55920883     1.01061653
O     -5.30165905    -1.63185576     1.67127940
C     -3.94261429    -0.36411559     0.22619478
C     -4.95287894     0.55908509    -0.07919999
C     -4.66444529     1.65719823    -0.88358954
C     -3.37721670     1.82212103    -1.38587020
C     -2.37286631     0.90226833    -1.06414212
C     -2.62802466    -0.19675641    -0.22576330
C     -1.55315928    -1.15476324     0.16192008
N     -0.22861513    -0.75827966    -0.07408765
C     -1.88248798    -2.36425884     0.66852128
Br    -0.59094882    -3.66013605     1.09463792
H      6.46752145     1.52942971    -0.23416518
H      6.62330016    -0.23959087    -0.09824820
H      6.23193462     0.48478378    -1.65729502
H      3.95317645     1.37139051    -2.11348374
H      1.55743369     1.26055842    -1.56226954
H      0.25395761     0.10579187     1.78894819
H     -0.07122996     1.28239697     0.51778077
H      2.52236354    -0.50186833     2.25535630
H      4.91142340    -0.39358280     1.69976879
H     -5.96513338     0.41319781     0.29440561
H     -5.44492982     2.37272119    -1.13160372
H     -3.15026961     2.66698940    -2.03260641
H     -1.38231702     1.05273250    -1.48984808
H      0.38911464    -1.57481214    -0.02666049
