36
conf 4 ff=MMFF E=112.231 Rg=4.24 smiles=Cc1ccc(CNC2=C(Br)C(=O)C(=O)c3ccccc32)cc1
C      6.05643081    -0.53900895     0.84101696
C      4.60338724    -0.43528304     0.48313786
C      3.62964042    -1.02812336     1.29398912
C      2.27913837    -0.95728864     0.94517265
C      1.87906280    -0.30562784    -0.22940336
C      0.41824071    -0.21845508    -0.59331896
C      2.85645207     0.28214896    -1.04313915
C      4.20721959     0.21034206    -0.69332854
O     -3.72712704     3.90550306    -0.66961186
C     -3.32088309     2.75444060    -0.59137810
C     -4.27468404     1.59842792    -0.80995946
O     -5.28160135     1.73120585    -1.48918589
C     -3.94073328     0.32565626    -0.15917531
C     -4.94144592    -0.64260150     0.00593196
C     -4.65528475    -1.82210750     0.68634654
C     -3.38015866    -2.02400235     1.20571308
C     -2.38482432    -1.05726018     1.02382321
C     -2.63676823     0.12763489     0.31081045
C     -1.56980218     1.14106505     0.07007501
N     -0.24523904     0.74079177     0.29950204
C     -1.90759181     2.39591210    -0.30306105
Br    -0.62948428     3.75276977    -0.53610114
H      6.48628012    -1.44408976     0.40105219
H      6.61192045     0.33098697     0.47528144
H      6.18964799    -0.57547550     1.92736424
H      3.91615117    -1.54504174     2.20723232
H      1.53564229    -1.40871659     1.59868922
H     -0.03147319    -1.21448572    -0.51942585
H      0.30756960     0.10693858    -1.63518649
H      2.57638353     0.80022789    -1.95783522
H      4.95003250     0.66584268    -1.34485321
H     -5.94511030    -0.47023892    -0.37939271
H     -5.42869577    -2.57382446     0.82563481
H     -3.15576696    -2.93465248     1.75701804
H     -1.40427001    -1.24056530     1.45967511
H      0.35774457     1.56695451     0.36604765
