36
conf 3 ff=MMFF E=112.231 Rg=4.24 smiles=Cc1ccc(CNC2=C(Br)C(=O)C(=O)c3ccccc32)cc1
C     -6.07446872    -0.37867257     0.60905447
C     -4.61583825    -0.09001385     0.41095312
C     -4.19224158     0.73559645    -0.63632215
C     -2.83671485     1.02938856    -0.80463933
C     -1.88221991     0.51496397     0.08262931
C     -0.41615903     0.81570314    -0.10245125
C     -2.30985335    -0.30652722     1.13459293
C     -3.66507981    -0.59978854     1.30163608
O      3.83016017    -0.74209742    -3.80906237
C      3.39490732    -0.35909942    -2.73204418
C      4.32203630     0.29937224    -1.73167848
O      5.33859687     0.87141047    -2.09532458
C      3.95038105     0.20464116    -0.31467854
C      4.92523214     0.43648915     0.66619819
C      4.60335703     0.27769245     2.01054453
C      3.31856602    -0.12037346     2.36734159
C      2.34921821    -0.33620034     1.38136575
C      2.63734279    -0.14961059     0.01827803
C      1.59812066    -0.32988398    -1.03572791
N      0.26188618    -0.38320893    -0.61269879
C      1.97042068    -0.48308376    -2.32642550
Br     0.72852070    -0.80634798    -3.69832940
H     -6.52209709     0.38294022     1.25487476
H     -6.60471911    -0.38696453    -0.34906478
H     -6.21928914    -1.36222265     1.06827764
H     -4.91710952     1.15347648    -1.33179254
H     -2.53491425     1.66491734    -1.63441748
H      0.00810671     1.14193154     0.85324284
H     -0.28717923     1.64409250    -0.81008910
H     -1.58422060    -0.72783527     1.82713563
H     -3.97327911    -1.23443646     2.12961219
H      5.93660316     0.72293124     0.38228906
H      5.35658144     0.44748969     2.77635479
H      3.06634608    -0.26684614     3.41543718
H      1.36017886    -0.66471006     1.69590723
H     -0.32117882    -0.77137702    -1.36097894
