36
conf 8 ff=MMFF E=115.624 Rg=4.20 smiles=Cc1ccc(CNC2=C(Br)C(=O)C(=O)c3ccccc32)cc1
C      5.70350620     0.65347691     1.14447475
C      4.40936605     0.14786515     0.57886394
C      3.78327256     0.82509157    -0.47322220
C      2.59584165     0.33638863    -1.02225091
C      2.02215971    -0.84841930    -0.54025283
C      0.72205455    -1.35745346    -1.11983425
C      2.65319443    -1.52765039     0.51018492
C      3.84116573    -1.03769769     1.05836920
O     -4.58231494    -1.86109115    -2.62290050
C     -3.91108268    -1.45338377    -1.68498012
C     -4.59684339    -0.88630300    -0.46542668
O     -5.67199429    -1.31493710    -0.07813431
C     -3.90548018     0.21888884     0.19624349
C     -4.63856665     1.10754289     0.99508042
C     -4.00544446     2.21300114     1.55225449
C     -2.65449133     2.42912902     1.29938844
C     -1.92972547     1.52493081     0.51277039
C     -2.53422484     0.37641928    -0.03522760
C     -1.74351124    -0.64366966    -0.81674505
N     -0.37067447    -0.57282321    -0.57380519
C     -2.41866434    -1.48116117    -1.64435724
Br    -1.66058156    -2.77215101    -2.77822213
H      5.75658492     1.74553739     1.08278540
H      6.54566875     0.22622375     0.59154821
H      5.79995887     0.38335379     2.20133050
H      4.21574577     1.74027334    -0.87175037
H      2.11615337     0.88487295    -1.83065042
H      0.76998805    -1.26094789    -2.20988716
H      0.60084988    -2.41627826    -0.86616229
H      2.22708915    -2.44624989     0.90794441
H      4.32104974    -1.58812870     1.86488232
H     -5.70219045     0.94829838     1.16437627
H     -4.56724471     2.91344059     2.16570570
H     -2.15818110     3.30454944     1.71333584
H     -0.88024423     1.74807863     0.32638049
H     -0.15218906    -0.25901687     0.37199310
