36
conf 2 ff=MMFF E=112.210 Rg=4.24 smiles=Cc1ccc(CNC2=C(Br)C(=O)C(=O)c3ccccc32)cc1
C     -6.04729876    -0.58309542     0.70597927
C     -4.58502577    -0.60977517     0.37246330
C     -3.62827613    -0.71017286     1.38819797
C     -2.26592631    -0.70202590     1.08077777
C     -1.83541351    -0.58819782    -0.24808411
C     -0.36314777    -0.56249957    -0.57312387
C     -2.79485829    -0.46354530    -1.26147658
C     -4.15743861    -0.47217965    -0.95271160
O      3.54111534     3.40429411    -2.36595009
C      3.19674853     2.37845706    -1.79570992
C      4.22487728     1.31960830    -1.45559143
O      5.25892244     1.21506402    -2.09799838
C      3.92756168     0.44225345    -0.31679115
C      4.97051786    -0.27632318     0.28495493
C      4.71396121    -1.05359653     1.41017294
C      3.42540732    -1.10125308     1.93344117
C      2.38882166    -0.39102128     1.31746636
C      2.61277853     0.37414695     0.15979598
C      1.50542427     1.09486572    -0.53135599
N      0.19483276     0.73843352    -0.18118800
C      1.79211710     2.07858380    -1.41343727
Br     0.45439271     3.09393919    -2.25518419
H     -6.25489377    -1.18054704     1.59995479
H     -6.64203890    -1.00476104    -0.11115726
H     -6.37148197     0.44663855     0.88508153
H     -3.93794183    -0.79160698     2.42781164
H     -1.53763079    -0.77333507     1.88584315
H      0.13557793    -1.38724570    -0.05267919
H     -0.21151356    -0.72345435    -1.64772509
H     -2.49103731    -0.35464693    -2.30040491
H     -4.88501316    -0.36881823    -1.75501526
H      5.98269547    -0.21645105    -0.11182903
H      5.51956753    -1.60684969     1.88720072
H      3.22245208    -1.69016953     2.82538270
H      1.39749855    -0.43668124     1.76496946
H     -0.45633382     1.46196795    -0.50208034
