48
conf 2 ff=MMFF E=126.556 Rg=5.22 smiles=Cc1ccc(COc2ccc(C(C)(C)C3=CC(=O)C(=O)C=C3)cc2)cc1
C      8.32168490     0.09746719     1.31686448
C      6.89499460     0.27945325     0.89160498
C      6.41009208    -0.35876486    -0.25519074
C      5.07274365    -0.21691971    -0.63320013
C      4.19591515     0.56476098     0.13037304
C      2.74948393     0.70575161    -0.27375830
C      4.67602146     1.17900090     1.29403822
C      6.01375270     1.03669382     1.67127555
C     -3.76998402    -1.30934078    -2.22761164
C     -3.59926160    -1.05492528    -0.70424769
C     -4.20989733    -2.29897739    -0.00540114
C     -4.38385059     0.18951853    -0.18919923
C     -5.21005390     0.92207728    -0.95961539
C     -5.93326863     2.09990139    -0.42693174
O     -6.67163897     2.75655007    -1.14647433
C     -5.71758474     2.45405490     1.04023721
O     -6.28174366     3.40087525     1.56719805
C     -4.78945269     1.59954482     1.80409923
C     -4.18803575     0.56193241     1.21158514
C     -2.08143317    -0.88212584    -0.45789009
C     -1.31465769    -1.81560537     0.25501704
C      0.05574271    -1.61593665     0.45705656
C      0.69954670    -0.48643955    -0.04658124
O      2.03638848    -0.42185715     0.22750803
C     -0.04202576     0.44891633    -0.76112864
C     -1.41385891     0.25146701    -0.96463341
H      8.97352340    -0.04147013     0.44793695
H      8.68389249     0.97899657     1.85625610
H      8.40930201    -0.77718633     1.96865357
H      7.07017487    -0.97585693    -0.86055157
H      4.71488503    -0.72854407    -1.52401688
H      2.68597445     0.75055588    -1.36851428
H      2.34212048     1.63569596     0.14265773
H      4.00855278     1.76674617     1.92019818
H      6.36248283     1.51819074     2.58210955
H     -3.44676179    -0.45428118    -2.83281296
H     -3.17493104    -2.17272240    -2.55153842
H     -4.81401128    -1.52331608    -2.48610527
H     -3.76913344    -3.22970902    -0.38283159
H     -5.29052160    -2.36088504    -0.18528704
H     -4.06201552    -2.28437073     1.08054865
H     -5.40883558     0.71500222    -2.00354490
H     -4.62613427     1.85890023     2.84256243
H     -3.50135600    -0.03906167     1.80594199
H     -1.75327601    -2.71890015     0.66963054
H      0.62898497    -2.35422050     1.01405410
H      0.40835967     1.34428400    -1.17632856
H     -1.96089539     1.00507929    -1.52890588
