48
conf 7 ff=MMFF E=126.573 Rg=5.24 smiles=Cc1ccc(COc2ccc(C(C)(C)C3=CC(=O)C(=O)C=C3)cc2)cc1
C     -8.36805192     1.21208813     0.27679655
C     -6.88825228     1.08186476     0.07057524
C     -6.08095745     2.22131238    -0.01652664
C     -4.70617383     2.10249106    -0.23818651
C     -4.11463202     0.84098683    -0.38307289
C     -2.63388232     0.70790320    -0.64970513
C     -4.92946666    -0.29761786    -0.31493002
C     -6.30342960    -0.17822650    -0.09314665
C      3.74313166    -2.39333465    -1.05082446
C      3.51963267    -1.52622662     0.21908008
C      3.96639834    -2.41416589     1.41107954
C      4.39621715    -0.23789356     0.25535867
C      5.33013617     0.05544832    -0.66905353
C      6.13803751     1.29477364    -0.59537568
O      6.97448523     1.54600211    -1.45057629
C      5.88237595     2.23297467     0.57890702
O      6.50944104     3.27099188     0.72637542
C      4.83549492     1.83303736     1.53764822
C      4.16570651     0.68824805     1.36368028
C      2.01575436    -1.16252826     0.24020850
C      1.49163144    -0.29189853    -0.73689848
C      0.13766234     0.06701828    -0.75156949
C     -0.72943540    -0.43968371     0.21109641
O     -2.06572912    -0.17547871     0.31685646
C     -0.22849563    -1.30658788     1.18138980
C      1.12383187    -1.66665405     1.19827768
H     -8.76514039     0.34565781     0.81610095
H     -8.60277184     2.10034261     0.87273360
H     -8.87507184     1.29019268    -0.68981828
H     -6.51791502     3.21175798     0.08976548
H     -4.10256993     3.00536961    -0.29562902
H     -2.50376295     0.31022801    -1.66401239
H     -2.15323580     1.69111969    -0.57624113
H     -4.49247870    -1.28746280    -0.43123768
H     -6.91326028    -1.07756034    -0.04649033
H      3.53838984    -1.84083705    -1.97532391
H      4.77272546    -2.76649347    -1.10813388
H      3.08282983    -3.26994560    -1.05002924
H      3.45556723    -3.38472467     1.40386318
H      5.04340972    -2.61928094     1.36734239
H      3.76437227    -1.94589237     2.38127280
H      5.56144212    -0.57432098    -1.51880198
H      4.64482415     2.50569086     2.36441222
H      3.39270568     0.43277865     2.08700626
H      2.13952248     0.12456278    -1.50656270
H     -0.19918700     0.74305841    -1.53029070
H     -0.90016580    -1.70984075     1.93640875
H      1.44833985    -2.34924457     1.97866251
