48
conf 0 ff=MMFF E=126.556 Rg=5.22 smiles=Cc1ccc(COc2ccc(C(C)(C)C3=CC(=O)C(=O)C=C3)cc2)cc1
C      8.37139177     0.77639758    -0.50778107
C      6.91368059     0.72545423    -0.15864961
C      6.04867433     1.74318815    -0.57562604
C      4.68455386     1.68001875    -0.28021412
C      4.16143668     0.59633871     0.43665117
C      2.68731661     0.51828588     0.74687841
C      5.02421484    -0.43586052     0.82790124
C      6.38798030    -0.37193379     0.53198295
C     -4.09143867    -2.12525765    -1.39637854
C     -3.58564082    -1.32899025    -0.16387921
C     -3.84004264    -2.25253628     1.05957963
C     -4.39405458     0.00284524    -0.11722097
C     -5.30097461     0.29227045     0.83489517
C     -6.04394792     1.57368386     0.84042916
O     -6.85651469     1.81993311     1.71975558
C     -5.75297804     2.56094375    -0.28437446
O     -6.32682747     3.63631706    -0.36623714
C     -4.73909944     2.16136851    -1.27810109
C     -4.12795429     0.97580372    -1.17635923
C     -2.06514559    -1.04271358    -0.18608782
C     -1.48523548    -0.25631570     0.83015954
C     -0.11415192     0.03041023     0.84582259
C      0.71445367    -0.46610927    -0.15531627
O      2.06139277    -0.26588164    -0.26533526
C      0.15785068    -1.24996628    -1.16509820
C     -1.21160708    -1.53797748    -1.18295872
H      8.72491908     1.81162542    -0.55828011
H      8.54123505     0.29660376    -1.47653170
H      8.97285187     0.26503599     0.25115534
H      6.43112056     2.59168870    -1.13852122
H      4.03096145     2.47974556    -0.62122220
H      2.55270894     0.05795627     1.73405090
H      2.26360427     1.53030426     0.76763402
H      4.63535603    -1.30216858     1.35863587
H      7.03690816    -1.18839535     0.84062472
H     -5.17713565    -2.27672862    -1.34884679
H     -3.63192255    -3.11974632    -1.44953226
H     -3.87609123    -1.61493203    -2.34219213
H     -3.22651219    -3.16063995     1.00149435
H     -3.59646001    -1.76348821     2.01003706
H     -4.88703507    -2.57469917     1.11072036
H     -5.55530222    -0.37082640     1.65208701
H     -4.52294068     2.86801955    -2.06946917
H     -3.37746462     0.72127899    -1.92333027
H     -2.10182880     0.14960979     1.63054768
H      0.26628708     0.64371004     1.65579201
H      0.79938473    -1.64522745    -1.95003084
H     -1.57997708    -2.15844306    -1.99509014
