48
conf 8 ff=MMFF E=126.573 Rg=5.24 smiles=Cc1ccc(COc2ccc(C(C)(C)C3=CC(=O)C(=O)C=C3)cc2)cc1
C      8.38644249    -1.03964521     0.41584512
C      6.90559870    -0.96055918     0.19192591
C      6.30042688     0.26058124    -0.12309495
C      4.92565711     0.32886726    -0.36092495
C      4.13038177    -0.82355957    -0.29407356
C      2.64881528    -0.74888060    -0.57833527
C      4.74237792    -2.04824103     0.00243576
C      6.11795789    -2.11596175     0.24008445
C     -4.01220297     2.48309124     1.07788837
C     -3.54522976     1.46677860     0.00180784
C     -3.77758495     2.17178340    -1.36327958
C     -4.40017888     0.17712144     0.18986727
C     -5.32488639    -0.24073368    -0.69506591
C     -6.11214863    -1.47608643    -0.47557797
O     -6.94041846    -1.84217472    -1.29659849
C     -5.84599313    -2.26256038     0.80315120
O     -6.45615257    -3.28615003     1.07224120
C     -4.81029626    -1.73283214     1.70969192
C     -4.15908904    -0.60569434     1.40161108
C     -2.03555771     1.13418630     0.06997714
C     -1.15654238     1.76458697     0.96300069
C      0.20170806     1.42843162     0.99263281
C      0.72149831     0.46044224     0.13429248
O      2.06155510     0.23384015     0.27418160
C     -0.13263084    -0.17263531    -0.76292881
C     -1.49249431     0.16208454    -0.79462711
H      8.89900063    -1.22436969    -0.53319895
H      8.63337639    -1.84587253     1.11459375
H      8.76653642    -0.10809493     0.84825997
H      6.89484935     1.16938958    -0.18311745
H      4.47262399     1.28997416    -0.59611482
H      2.51657592    -0.47768166    -1.63325818
H      2.18445324    -1.72439466    -0.38892384
H      4.15429604    -2.96175523     0.05215694
H      6.57101734    -3.07886698     0.46538255
H     -3.51773878     3.45447791     0.95581695
H     -5.09230515     2.66291253     1.00729602
H     -3.80667966     2.13777929     2.09763938
H     -3.13213309     3.05344580    -1.46578436
H     -3.55943484     1.51628549    -2.21451565
H     -4.81304248     2.51760608    -1.46734325
H     -5.56294680     0.27879808    -1.61462872
H     -4.61204187    -2.29838292     2.61147108
H     -3.39374494    -0.25225427     2.09104912
H     -1.49597610     2.52993758     1.65528698
H      0.86310974     1.93061232     1.69560458
H      0.21902526    -0.93107245    -1.45431551
H     -2.12983384    -0.35455412    -1.51049496
