48
conf 9 ff=MMFF E=126.573 Rg=5.24 smiles=Cc1ccc(COc2ccc(C(C)(C)C3=CC(=O)C(=O)C=C3)cc2)cc1
C      8.44022124    -0.00953240     0.53088557
C      6.95830488     0.18651011     0.40928485
C      6.26061062     0.93358142     1.36466570
C      4.88455388     1.14200884     1.23696372
C      4.18211470     0.61175931     0.14713999
C      2.69997966     0.85673272    -0.00997750
C      4.88770520    -0.11950042    -0.81847961
C      6.26299719    -0.32766063    -0.69018330
C     -3.92755604    -0.09357727    -2.38012781
C     -3.64619101    -0.69456580    -0.97508969
C     -4.19213969    -2.14645859    -1.02848622
C     -4.40117512     0.03535532     0.17674937
C     -5.28889170     1.02752595    -0.02412370
C     -5.98061370     1.69502085     1.10283362
O     -6.77629752     2.60011918     0.89836560
C     -5.65913143     1.21065922     2.51228908
O     -6.19049170     1.69495795     3.49998681
C     -4.66930998     0.12432162     2.63564721
C     -4.10477259    -0.39891351     1.54159480
C     -2.11580716    -0.60999911    -0.76261548
C     -1.49795923     0.64801615    -0.61065113
C     -0.11668009     0.76948542    -0.41169854
C      0.68429607    -0.36690617    -0.36293523
O      2.03730037    -0.39661972    -0.17540601
C      0.08998380    -1.61868498    -0.51711579
C     -1.28980233    -1.74273756    -0.71591987
H      8.74717215    -0.95868066     0.07908378
H      8.74566427    -0.03713203     1.58215640
H      8.96809453     0.80791340     0.03023010
H      6.78488112     1.35789045     2.21807893
H      4.36745297     1.72200222     1.99790584
H      2.55055144     1.49482794    -0.88997797
H      2.31053296     1.36343568     0.88149099
H      4.36362467    -0.53511774    -1.67689889
H      6.78680509    -0.89709601    -1.45453989
H     -3.65776863     0.96717711    -2.44247451
H     -4.98600363    -0.18352928    -2.65251039
H     -3.35070210    -0.61561742    -3.15418241
H     -3.77261434    -2.70353127    -1.87504072
H     -3.96385869    -2.71372985    -0.11883588
H     -5.28258181    -2.15289304    -1.15028265
H     -5.56309931     1.40786411    -1.00000155
H     -4.43123999    -0.21077628     3.63733941
H     -3.37049200    -1.19214221     1.67431499
H     -2.09213987     1.55986393    -0.64327049
H      0.29358122     1.76753226    -0.29995120
H      0.70929507    -2.51261436    -0.48317325
H     -1.68840343    -2.74654483    -0.83305710
