48
conf 5 ff=MMFF E=126.556 Rg=5.22 smiles=Cc1ccc(COc2ccc(C(C)(C)C3=CC(=O)C(=O)C=C3)cc2)cc1
C      8.38361626    -0.62515837    -0.62827782
C      6.91597577    -0.69388528    -0.32708700
C      6.36580918     0.08144767     0.69944862
C      4.99360417     0.04347688     0.95853145
C      4.14675982    -0.76974044     0.19405166
C      2.66376339    -0.79893159     0.46832934
C      4.69507420    -1.52275283    -0.85200700
C      6.06761399    -1.48425965    -1.11033566
C     -3.88092887     1.71646290     1.57348351
C     -3.58651599     1.29748198     0.10641601
C     -4.05848853     2.48997564    -0.76772885
C     -4.39069022     0.04512782    -0.35662532
C     -5.32444393    -0.56329732     0.39883395
C     -6.06218144    -1.75421949    -0.08232006
O     -6.89961556    -2.29670034     0.62375319
C     -5.73391570    -2.26859712    -1.47952665
O     -6.30082692    -3.23701233    -1.96245174
C     -4.69244185    -1.54319951    -2.23068151
C     -4.08928667    -0.47955822    -1.68820057
C     -2.06491444     1.02790036     0.02635698
C     -1.18400595     1.84474408    -0.69775098
C      0.18543924     1.56010124    -0.74552131
C      0.71479090     0.45957657    -0.07281811
O      2.06519264     0.30326398    -0.20853965
C     -0.14131859    -0.36016464     0.65553538
C     -1.51244983    -0.07750580     0.70483816
H      8.96028292    -0.42888385     0.28175399
H      8.58041678     0.17255547    -1.35108124
H      8.74238938    -1.57384934    -1.04118327
H      7.00217773     0.72523974     1.30239729
H      4.58585792     0.66062392     1.75618693
H      2.49798101    -0.72680240     1.55084704
H      2.24362642    -1.74660473     0.10840215
H      4.05493613    -2.13914880    -1.47915260
H      6.46984633    -2.07306947    -1.93166507
H     -4.93024384     2.00563163     1.70733462
H     -3.26952876     2.57944809     1.86655495
H     -3.66386705     0.91439694     2.28863576
H     -3.81304143     2.35571530    -1.82749239
H     -5.14570776     2.62165546    -0.70024029
H     -3.60151159     3.43277791    -0.44325396
H     -5.60564150    -0.23976084     1.39303467
H     -4.44999508    -1.91641527    -3.21773434
H     -3.31786827     0.02308433    -2.26979084
H     -1.53045464     2.72000677    -1.24007873
H      0.84851830     2.20843157    -1.31465279
H      0.21723036    -1.22805202     1.19879816
H     -2.15101844    -0.74155661     1.28522701
