48
conf 4 ff=MMFF E=126.556 Rg=5.22 smiles=Cc1ccc(COc2ccc(C(C)(C)C3=CC(=O)C(=O)C=C3)cc2)cc1
C      8.35499992    -1.03047615     0.14632193
C      6.88705379    -0.92376512    -0.14204857
C      6.36816841     0.21574030    -0.76645878
C      4.99650154     0.33055310    -1.00491394
C      4.11894235    -0.69203920    -0.62138627
C      2.63691785    -0.55939659    -0.86911759
C      4.63667574    -1.81886851     0.02986179
C      6.00869922    -1.93291250     0.26782872
C     -3.97167793     2.18287024     1.64879737
C     -3.53801473     1.42487723     0.36571051
C     -3.81182449     2.40564033    -0.80801934
C     -4.38712305     0.11957545     0.29718256
C     -5.33846045    -0.10397475    -0.62898077
C     -6.11910883    -1.36249124    -0.65701014
O     -6.97209743    -1.54863525    -1.51251046
C     -5.81451039    -2.40378857     0.41418109
O     -6.41668800    -3.46497383     0.47504420
C     -4.75143369    -2.07499882     1.38210083
C     -4.10947537    -0.90398806     1.30438741
C     -2.02704814     1.09500552     0.31555377
C     -1.51069870     0.33571490    -0.75418310
C     -0.15044061     0.01122086    -0.83621478
C      0.73078308     0.44178763     0.15042274
O      2.07437961     0.19911401     0.19834970
C      0.23738512     1.19814587     1.21267471
C     -1.12112566     1.52378448     1.29688738
H      8.57650035    -0.59628299     1.12608552
H      8.94170924    -0.50534715    -0.61476124
H      8.67902511    -2.07652139     0.14089624
H      7.02886183     1.02551617    -1.06765800
H      4.61355686     1.22877376    -1.48443143
H      2.18264860    -1.55727441    -0.91412682
H      2.47802130    -0.05453530    -1.83057446
H      3.97307488    -2.61313723     0.36423065
H      6.38702450    -2.81449420     0.78042778
H     -5.05338119     2.36686682     1.65083046
H     -3.73525917     1.62752255     2.56370998
H     -3.48089054     3.16085771     1.72400631
H     -3.61994210     1.95009821    -1.78655651
H     -4.84990475     2.75915662    -0.80418845
H     -3.16961267     3.29279586    -0.73754513
H     -5.60425886     0.59966552    -1.40771307
H     -4.52606083    -2.81997870     2.13480027
H     -3.32336074    -0.70228510     2.03055767
H     -2.16968152    -0.01876645    -1.54517448
H      0.17984076    -0.57817721    -1.68500515
H      0.92036220     1.54191856     1.98680557
H     -1.43905242     2.11990702     2.14764656
