48
conf 1 ff=MMFF E=126.556 Rg=5.22 smiles=Cc1ccc(COc2ccc(C(C)(C)C3=CC(=O)C(=O)C=C3)cc2)cc1
C      8.35879334     0.79642377     0.78598080
C      6.91194351     0.71330300     0.39981342
C      6.40096977    -0.44836942    -0.18926851
C      5.04635197    -0.53913157    -0.51833280
C      4.17810256     0.53022620    -0.26237887
C      2.71353401     0.42421191    -0.60757896
C      4.68563103     1.68098993     0.35411765
C      6.04061491     1.77094505     0.68276791
C     -4.14122065    -1.96679509     1.58987846
C     -3.59420583    -1.30341801     0.29773554
C     -3.81696875    -2.34781658    -0.83103314
C     -4.39336045     0.01847276     0.08928350
C     -5.26966377     0.21021109    -0.91477062
C     -6.00492095     1.48603926    -1.07514673
O     -6.78933539     1.64212321    -1.99951248
C     -5.74229029     2.58352510    -0.04992472
O     -6.31228684     3.66302569    -0.09699509
C     -4.76094633     2.28626032     1.01012273
C     -4.15369585     1.09501058     1.04993940
C     -2.07347693    -1.02016292     0.33652495
C     -1.25302975    -1.41186996     1.40469969
C      0.11794444    -1.13065823     1.39887575
C      0.70899070    -0.45674991     0.33097624
O      2.05312729    -0.24958078     0.46066387
C     -0.08640126    -0.06429473    -0.74081136
C     -1.45892710    -0.34445082    -0.73735450
H      8.71650955     1.83041744     0.73990075
H      8.97983445     0.20772295     0.10263144
H      8.49678584     0.41906554     1.80386211
H      7.05421583    -1.29404881    -0.39192017
H      4.66867042    -1.45475169    -0.96819362
H      2.60601600    -0.13533850    -1.54559548
H      2.29632868     1.42971807    -0.74556718
H      4.02666157     2.51339762     0.59052503
H      6.41082126     2.67220879     1.16623870
H     -3.95149104    -1.36199623     2.48407678
H     -3.68909448    -2.95160353     1.75935506
H     -5.22583522    -2.11967147     1.52522331
H     -3.21056410    -3.24657667    -0.66089015
H     -3.54224012    -1.96021384    -1.81903956
H     -4.86374726    -2.67093731    -0.88047409
H     -5.50307968    -0.53315063    -1.66651121
H     -4.56466205     3.07036992     1.73053171
H     -3.42739857     0.91717484     1.84167819
H     -1.64908241    -1.94415787     2.26495726
H      0.73340751    -1.44427537     2.23956940
H      0.32160852     0.46106090    -1.59781186
H     -2.04893811    -0.02188399    -1.59375483
