48
conf 6 ff=MMFF E=126.573 Rg=5.24 smiles=Cc1ccc(COc2ccc(C(C)(C)C3=CC(=O)C(=O)C=C3)cc2)cc1
C      8.37814259     0.79174075    -0.81754313
C      6.90153770     0.81189736    -0.55577239
C      6.30353347    -0.19414319     0.21033509
C      4.93321447    -0.15928901     0.47908671
C      4.13540628     0.88528965    -0.00813150
C      2.65912244     0.93247941     0.30774385
C      4.74055155     1.90161351    -0.75859344
C      6.11168460     1.86629264    -1.02697343
C     -4.02562819    -2.65019990     0.11697015
C     -3.54125874    -1.30344199     0.71741626
C     -3.74885589    -1.43471884     2.25174261
C     -4.40101578    -0.17771222     0.06697878
C     -5.31064884     0.55049456     0.74157160
C     -6.10322050     1.61366659     0.08160751
O     -6.91747506     2.26916304     0.71520064
C     -5.86048754     1.85289483    -1.40445145
O     -6.47659606     2.70037666    -2.03264086
C     -4.84010179     1.01241723    -2.05829028
C     -4.18214752     0.08378087    -1.35533047
C     -2.03343496    -1.03004181     0.50272635
C     -1.47662171     0.19495217     0.92318685
C     -0.11794557     0.48500576     0.74391433
C      0.72121879    -0.44650761     0.14107502
O      2.05834407    -0.29749912    -0.09675267
C      0.18777850    -1.66544096    -0.27554846
C     -1.16931943    -1.95761595    -0.09766922
H      8.61180212     1.27002093    -1.77455961
H      8.90695487     1.32093602    -0.01889901
H      8.75182345    -0.23633377    -0.86913456
H      6.90008329    -1.01495012     0.60183967
H      4.48559489    -0.95608265     1.06987820
H      2.19027662     1.76504762    -0.23091098
H      2.54565233     1.08383168     1.38853712
H      4.15050885     2.73064198    -1.14249720
H      6.55949634     2.66850089    -1.60933402
H     -5.10410392    -2.78373967     0.26861840
H     -3.52786814    -3.50474912     0.59127782
H     -3.83836285    -2.72001353    -0.96072622
H     -3.51671368    -0.50583426     2.78574244
H     -3.10059283    -2.21457597     2.67129352
H     -4.78189901    -1.70926782     2.49677513
H     -5.53192802     0.42128178     1.79348544
H     -4.65836911     1.19117443    -3.11060735
H     -3.42850493    -0.50958331    -1.87102197
H     -2.10204132     0.94859458     1.39906277
H      0.24474342     1.44754129     1.08871060
H      0.83746511    -2.40094073    -0.74539502
H     -1.51979435    -2.92695464    -0.44086833
