48
conf 3 ff=MMFF E=126.556 Rg=5.22 smiles=Cc1ccc(COc2ccc(C(C)(C)C3=CC(=O)C(=O)C=C3)cc2)cc1
C      8.39375174    -0.61336985    -0.33722677
C      6.92303539    -0.62979830    -0.04374334
C      6.09180290    -1.58511505    -0.63898095
C      4.71645986    -1.58059016    -0.39302346
C      4.14814928    -0.61891621     0.45203082
C      2.66208747    -0.60303311     0.71035420
C      4.97790468     0.35444247     1.02384955
C      6.35292467     0.34923898     0.77726558
C     -3.91771540     2.02131160     1.15825680
C     -3.60108437     1.28913909    -0.17522738
C     -4.07228294     2.25130382    -1.29823268
C     -4.38839916    -0.04394049    -0.35558869
C     -5.32632892    -0.47913612     0.50678502
C     -6.04751569    -1.75562260     0.29575819
O     -6.88908781    -2.13645665     1.09628429
C     -5.69709014    -2.56482643    -0.94799371
O     -6.24937902    -3.62288805    -1.20859889
C     -4.65252771    -2.01343090    -1.83114446
C     -4.06558046    -0.84885984    -1.53335128
C     -2.07630323     1.02571454    -0.17726443
C     -1.52289939     0.10571821     0.73642461
C     -0.14884811    -0.16530316     0.76571180
C      0.70927223     0.48103924    -0.11818273
O      2.06259515     0.31367325    -0.20152976
C      0.17894787     1.39782874    -1.02490875
C     -1.19341579     1.67046085    -1.05611487
H      8.76614706    -1.62621800    -0.52347718
H      8.95695249    -0.21185885     0.51179172
H      8.59275263     0.00460462    -1.21815609
H      6.50972062    -2.33815237    -1.30332120
H      4.08989834    -2.32903904    -0.87289650
H      2.48194432    -0.29327110     1.74771957
H      2.25481078    -1.61178182     0.56649667
H      4.55452132     1.12971314     1.65873666
H      6.97579326     1.11891335     1.22738883
H     -4.97111970     2.32115923     1.21328334
H     -3.70277300     1.40139154     2.03653294
H     -3.31761185     2.93477471     1.25779045
H     -3.62768210     3.24782628    -1.18749899
H     -3.81224676     1.88692857    -2.29872351
H     -5.16137562     2.38240898    -1.27316343
H     -5.62291573     0.05471819     1.40077537
H     -4.39434399    -2.59455670    -2.70748762
H     -3.29125276    -0.47984600    -2.20434211
H     -2.16298003    -0.41939371     1.44362934
H      0.21031249    -0.88611528     1.49259213
H      0.84352981     1.91040317    -1.71737915
H     -1.54055471     2.39880720    -1.78360238
