29
conf 0 ff=MMFF E=76.153 Rg=3.59 smiles=Cc1ccc(C[n+]2ccc(C#N)cc2)cc1
C     -4.41877678     1.39749471    -0.58656281
C     -3.15996840     0.59483647    -0.42370584
C     -2.49143178     0.56765000     0.80389276
C     -1.34071232    -0.20652777     0.96863418
C     -0.84103081    -0.97324610    -0.09455529
C      0.40913048    -1.79608586     0.06831998
C     -1.52821528    -0.96331664    -1.31731228
C     -2.67860485    -0.18787789    -1.47731699
N      1.59004182    -0.92441499     0.31376539
C      2.04733759    -0.12591919    -0.68111791
C      3.14954900     0.69742546    -0.48054099
C      3.78707252     0.69439255     0.75676488
C      4.92515005     1.53509535     0.98822533
N      5.84580228     2.21200814     1.17669562
C      3.30733670    -0.13461357     1.76731996
C      2.20110193    -0.94092303     1.52130276
H     -5.28731621     0.79001945    -0.31435083
H     -4.53365835     1.73731168    -1.62122172
H     -4.39715592     2.28994548     0.04767352
H     -2.87240462     1.14941064     1.64261032
H     -0.85694894    -0.20218729     1.94301213
H      0.63909929    -2.38305973    -0.82901700
H      0.29775754    -2.49772044     0.90224425
H     -1.19201454    -1.56236848    -2.16242066
H     -3.20623566    -0.20068876    -2.43052721
H      1.51881896    -0.14952507    -1.63100224
H      3.50177018     1.33758537    -1.28880546
H      3.78766761    -0.15629008     2.74515784
H      1.79683849    -1.59841042     2.28675932
