29
conf 3 ff=MMFF E=76.197 Rg=3.59 smiles=Cc1ccc(C[n+]2ccc(C#N)cc2)cc1
C     -4.62439882     0.41672037     0.68225635
C     -3.26456656    -0.06955452     0.27028528
C     -2.36014926    -0.53889324     1.22758127
C     -1.08585396    -0.96814533     0.84998110
C     -0.68830260    -0.91980811    -0.49448238
C      0.68919812    -1.36466214    -0.90820232
C     -1.59607376    -0.44314788    -1.45172229
C     -2.86934063    -0.01525839    -1.06959841
N      1.73197188    -0.48233915    -0.31773160
C      1.84097081     0.79905496    -0.74502580
C      2.80701034     1.64520739    -0.21229857
C      3.66997355     1.16366888     0.76789916
C      4.67386765     2.01708502     1.33310099
N      5.48669296     2.70428862     1.78960332
C      3.54760617    -0.15644205     1.19325492
C      2.56576279    -0.96619735     0.63228493
H     -5.35521095     0.25648100    -0.11738877
H     -4.98290471    -0.12622061     1.56309874
H     -4.58384570     1.48487173     0.91653945
H     -2.65198561    -0.57931833     2.27649187
H     -0.42187658    -1.34246233     1.62616052
H      0.82886841    -1.32469297    -1.99518443
H      0.86745266    -2.39783117    -0.59049103
H     -1.33648230    -0.40014004    -2.50853028
H     -3.56070541     0.35481870    -1.82604245
H      1.14518182     1.13772664    -1.50877571
H      2.87839658     2.67443743    -0.56266227
H      4.21016720    -0.55868929     1.95913153
H      2.43857593    -2.00055784     0.94143985
