29
conf 1 ff=MMFF E=76.153 Rg=3.59 smiles=Cc1ccc(C[n+]2ccc(C#N)cc2)cc1
C      4.49925799     1.15416021    -0.55273216
C      3.21347090     0.47503723    -0.17733462
C      2.32801037     1.08119657     0.71888335
C      1.14872216     0.43590108     1.09772346
C      0.83729882    -0.83351683     0.58830168
C     -0.44046297    -1.52854333     0.97658162
C      1.73976601    -1.44960171    -0.29115607
C      2.91788036    -0.80064581    -0.66693230
N     -1.62546648    -0.77365561     0.48616102
C     -1.87102422    -0.71004988    -0.84506386
C     -2.97151292    -0.01331585    -1.33135780
C     -3.82761502     0.62082234    -0.43562737
C     -4.96864815     1.34607699    -0.91272623
N     -5.89199285     1.93084508    -1.29588973
C     -3.56365430     0.54271300     0.92922765
C     -2.45037126    -0.16501038     1.36984312
H      4.81248496     0.86608529    -1.56173879
H      4.38124852     2.24284855    -0.54793502
H      5.28742735     0.87982922     0.15509404
H      2.56015819     2.06242774     1.13158305
H      0.49256723     0.94243361     1.80224247
H     -0.50254295    -1.63187592     2.06543007
H     -0.51357368    -2.53381753     0.54447345
H      1.55237572    -2.44482484    -0.69180142
H      3.61299023    -1.29856382    -1.34225290
H     -1.17599665    -1.21490339    -1.51156559
H     -3.15224123     0.03298647    -2.40482975
H     -4.21759491     1.02998859     1.65191984
H     -2.21096122    -0.24502707     2.42716279
