29
conf 2 ff=MMFF E=76.197 Rg=3.59 smiles=Cc1ccc(C[n+]2ccc(C#N)cc2)cc1
C      4.56125682    -0.06978490     1.15434592
C      3.25536285     0.01738446     0.41788822
C      2.41359260    -1.09577214     0.33440264
C      1.18719056    -1.01025178    -0.32838832
C      0.77408771     0.19912113    -0.90694377
C     -0.55367976     0.30484431    -1.60867184
C      1.61843003     1.31557956    -0.81656958
C      2.84399508     1.22534130    -0.15312141
N     -1.67673141     0.09955029    -0.65413731
C     -1.92209328     1.03298251     0.29714679
C     -2.96562316     0.86811060     1.20095459
C     -3.76468513    -0.26871462     1.12029866
C     -4.84630993    -0.46169762     2.04139670
N     -5.72168962    -0.61857230     2.78330594
C     -3.50202244    -1.21645250     0.13470170
C     -2.44681845    -1.00955801    -0.74742525
H      5.29719738     0.61952827     0.72722858
H      4.41238032     0.17978407     2.20934917
H      4.98238212    -1.07822796     1.08445183
H      2.71794378    -2.04144800     0.78170470
H      0.57299154    -1.90638973    -0.38433333
H     -0.62080686    -0.43791879    -2.41113799
H     -0.70698339     1.29273618    -2.05945317
H      1.34580479     2.27121250    -1.26212587
H      3.48606447     2.10334948    -0.08993447
H     -1.27243223     1.90420896     0.32936798
H     -3.14669541     1.62515841     1.96335285
H     -4.11201214    -2.11534316     0.04945772
H     -2.21009683    -1.72876054    -1.52740332
