39
phenothiazine/ox q=1 m=2 E=-33335.318452eV model=uma-s-1p1
C        5.24555587       0.76945228      -0.47406958      -0.00232438       0.00045079       0.00170882
C        3.81813375       0.77230938      -0.00329342       0.00717539      -0.00512059       0.00063543
C        2.82418076       0.12936228      -0.73109081       0.00637919      -0.00155988       0.00022202
C        1.50949563       0.10047448      -0.28521739       0.00503683      -0.00143486       0.00045562
C        1.16306116       0.72212094       0.90459963      -0.00484288      -0.00722484      -0.00043645
C       -0.24922657       0.73026088       1.44533013      -0.00583812      -0.00349100      -0.00109230
C        2.14843962       1.37397173       1.64008024      -0.00135449      -0.00476350      -0.00329899
C        3.45611929       1.39687286       1.18979595       0.00138098      -0.00256529      -0.00199159
N       -1.23141973       0.01978380       0.61019244      -0.00084768       0.00245487       0.00327141
C       -1.88527377       0.73913752      -0.37554284       0.00994499       0.00339287      -0.00118626
C       -1.37923348       1.98745819      -0.78955995       0.00110545       0.00934344       0.00231564
C       -2.04014950       2.73129317      -1.73331317      -0.00025682      -0.00249940       0.00136698
C       -3.23123528       2.26979157      -2.30847629      -0.00181836       0.00317525      -0.00044638
C       -3.73023570       1.04625662      -1.94353792       0.00037678       0.00610162      -0.00186300
C       -3.06238559       0.26688323      -0.98774758      -0.00517259       0.00876198       0.00654994
S       -3.77362006      -1.24865638      -0.60127244       0.00064580      -0.00836714      -0.01708149
C       -2.55935021      -2.01214599       0.34459027      -0.00442769       0.00099585       0.01030735
C       -2.75891784      -3.36857807       0.63969466       0.00167423      -0.00312098       0.00613460
C       -1.85022281      -4.04999585       1.40679046       0.00056918      -0.00016450       0.00299592
C       -0.71037524      -3.38805776       1.88256802      -0.00028745       0.00379448      -0.00372720
C       -0.50172346      -2.06068263       1.61005432       0.00385110      -0.00075655       0.00671896
C       -1.43336061      -1.32927901       0.84531633       0.00983395       0.00171053      -0.00114884
H        5.75941172       1.68790970      -0.19243830      -0.01344643      -0.00580724       0.00371023
H        5.30393501       0.66085498      -1.55634700      -0.00023539       0.00283505       0.01021115
H        5.79193479      -0.06432338      -0.02836070      -0.00083744       0.01040256       0.00138201
H        3.08062567      -0.35810381      -1.66365794      -0.01114540      -0.00410003      -0.00717086
H        0.76264771      -0.41127192      -0.88137910       0.00653679      -0.00142016      -0.00646825
H       -0.28983487       0.27964071       2.43582753      -0.00366132       0.00759636      -0.00186404
H       -0.61445118       1.74984536       1.56313453       0.00100220      -0.00745706       0.00843871
H        1.89173335       1.86853299       2.57057797       0.00635168       0.00171980      -0.00002621
H        4.21015565       1.90916995       1.77443362       0.00675859       0.00374741      -0.00451201
H       -0.44187002       2.34850713      -0.39515940       0.00252152       0.00709573      -0.00218031
H       -1.62618139       3.68108551      -2.04324906      -0.00115893      -0.00827446       0.00145512
H       -3.74531725       2.86839653      -3.04699417      -0.00670736      -0.00645115      -0.00273268
H       -4.63933436       0.66599691      -2.39146690      -0.00053566      -0.00488412      -0.00047953
H       -3.63592295      -3.86889919       0.24946858      -0.00404813       0.00212321      -0.00086731
H       -2.00467963      -5.09569301       1.63185770      -0.00504503      -0.00136731      -0.00549773
H        0.02208954      -3.93114482       2.46411034      -0.00122597       0.00647778      -0.00731423
H        0.40680149      -1.58853749       1.95123505       0.00407283      -0.00134947       0.00350596
