44
SMD(acetonitrile)-opt r2scan/def2-svp q=0 m=1
C -6.35712011 -0.29786005 -2.21923953
C -5.38338158 -0.63171805 -1.12395466
C -5.64474457 -1.65334601 -0.19648046
C -4.73659142 -1.95219848 0.82523529
C -3.54424087 -1.22843672 0.95783632
C -2.58653591 -1.51299156 2.09402438
C -3.27487626 -0.20650012 0.03292581
C -4.17762562 0.08193810 -0.99205354
O -1.23783967 -1.22851050 1.77991487
C -0.66594931 -2.15764413 0.89374785
C 0.71613758 -1.72292764 0.50202762
C 1.48601125 -2.54630520 -0.34223165
C 2.76778194 -2.16707548 -0.72591291
C 3.31543293 -0.95473199 -0.27582938
C 4.68726281 -0.57642755 -0.70067601
O 5.35225092 -1.29853103 -1.43545757
C 5.22477271 0.71834386 -0.19686994
C 6.51688767 1.11176993 -0.57380370
C 7.04524709 2.31956948 -0.11699095
C 6.28534566 3.14682380 0.72188152
C 4.99892741 2.76422279 1.10265700
C 4.45914106 1.55176796 0.64921537
C 3.08380573 1.16990721 1.07375431
O 2.42017080 1.89315183 1.80736417
C 2.54873784 -0.12523317 0.57054921
C 1.25767942 -0.51578503 0.95290343
H -5.85458845 -0.23082310 -3.19781467
H -6.83392128 0.68166949 -2.04133759
H -7.15655319 -1.04997477 -2.29201118
H -6.57078549 -2.23219180 -0.28262288
H -4.95785507 -2.76284310 1.52863871
H -2.70020838 -2.56296328 2.42939847
H -2.82983739 -0.86914819 2.95708196
H -2.33945248 0.35648813 0.11661990
H -3.94568255 0.87891489 -1.70754975
H -0.61909710 -3.16562990 1.35853907
H -1.27964104 -2.27198873 -0.02460622
H 1.06757471 -3.49372261 -0.69789573
H 3.36962314 -2.80243804 -1.38093145
H 7.09356617 0.45333296 -1.22879540
H 8.05388815 2.62122391 -0.41413234
H 6.70134539 4.09354571 1.07867467
H 4.39106210 3.39539884 1.75625998
H 0.67923354 0.13628817 1.60953116
