29
SMD(acetonitrile)-opt r2scan/def2-svpd q=-1 m=1
C 1.57410250 -0.23870953 1.25967297
C 1.26879777 0.14800039 -0.20264924
C 2.43281218 -0.35349943 -1.06786328
C 1.18215465 1.67622903 -0.36140795
C -0.09376786 2.26148879 0.22983010
C -1.30301760 1.57065163 -0.38707229
C -1.26291887 0.04043647 -0.22863508
C -1.56457270 -0.37112445 1.22785758
C -2.36250778 -0.55714874 -1.11702585
N 0.03266395 -0.47457249 -0.75496737
O 0.09077520 -1.87147573 -0.61573212
H 2.64672530 -0.12297523 1.48021229
H 1.02054747 0.36632662 1.98935600
H 1.30179547 -1.29703296 1.38970771
H 2.20557123 -0.20649573 -2.13517908
H 3.35550573 0.19814663 -0.82771756
H 2.60554044 -1.42419580 -0.89889394
H 2.07669359 2.13194849 0.09606847
H 1.21767056 1.91437906 -1.43977812
H -0.09963965 2.13392591 1.32513505
H -0.13795740 3.34731814 0.04564695
H -2.24222520 1.94846844 0.05145872
H -1.33637657 1.80579989 -1.46616342
H -1.08052609 0.27934206 1.96778977
H -1.20569928 -1.40217643 1.36610542
H -2.64759342 -0.34767536 1.42553631
H -2.12681968 -0.39136095 -2.17973390
H -2.44823770 -1.63851927 -0.94986819
H -3.33304055 -0.08505645 -0.89659969
