39
phenothiazine/neu q=0 m=1 E=-33341.947578eV model=uma-s-1p1
C        5.21641081       0.79241108      -0.42396576       0.00424004      -0.00196226      -0.00066619
C        3.79304197       0.80168107       0.06099112      -0.01468579      -0.01128609       0.00400310
C        2.78953240       0.16097534      -0.65533338      -0.01541815      -0.00644949      -0.00661286
C        1.47796546       0.13989510      -0.19899928      -0.00829239      -0.00222326       0.00595005
C        1.13738415       0.76497887       0.99138071       0.00661101       0.00358872       0.00267339
C       -0.27847306       0.77943986       1.53923384       0.01226317       0.00090879      -0.00061111
C        2.13763775       1.41081297       1.71175792       0.00167843      -0.00023536       0.00489366
C        3.44445552       1.42921193       1.25413464      -0.00404496       0.00150295       0.00176866
N       -1.30227296       0.10189022       0.77148134       0.00001281      -0.00021083       0.00059982
C       -1.90555071       0.77412132      -0.30759700      -0.01040559       0.00826317       0.00617767
C       -1.29330192       1.86322641      -0.92643435      -0.01410717       0.00313358       0.00108525
C       -1.92233706       2.52742798      -1.97046631      -0.00156024       0.00535426      -0.00213344
C       -3.15442091       2.10198138      -2.43748818       0.00248721      -0.00282777      -0.00116857
C       -3.76400468       1.00890025      -1.83940669       0.00481934       0.00202686      -0.00328036
C       -3.16033524       0.36624850      -0.77046988       0.00082466      -0.00641489      -0.00778304
S       -4.03714727      -0.89942186       0.08845746       0.01342341       0.00623231       0.00471180
C       -2.66394184      -1.89809852       0.56343211      -0.00047968      -0.00381549      -0.01097327
C       -2.82723546      -3.26901780       0.68030435       0.00455058      -0.00146369      -0.00073335
C       -1.80809225      -4.05711838       1.19452998       0.00136806       0.00212826      -0.00444890
C       -0.61510200      -3.46007220       1.56534394       0.00143795      -0.00510002       0.00320415
C       -0.42952401      -2.09288928       1.41157253      -0.01166107      -0.00438841       0.00488046
C       -1.45374082      -1.29017531       0.91113065      -0.00940502      -0.00152013       0.01067365
H        5.74538416       1.69455462      -0.11885422       0.00348764       0.01631072       0.00389416
H        5.26028355       0.72111271      -1.50996795       0.00946855       0.00108304      -0.01603200
H        5.75991681      -0.06154372      -0.01522111       0.01144685      -0.01347190       0.00608242
H        3.03549729      -0.33098586      -1.58920608      -0.00665196      -0.00254929      -0.00902589
H        0.71447010      -0.36662103      -0.77762992       0.00435404       0.00182732      -0.00080464
H       -0.27592856       0.33670379       2.53831175      -0.00122800      -0.00134700      -0.00160865
H       -0.59976252       1.81663706       1.66432978       0.00123974      -0.00340672      -0.00452522
H        1.88939519       1.90871551       2.64361404      -0.00001314      -0.00224052      -0.00551460
H        4.20669675       1.94029508       1.83113765      -0.00162661       0.00253289      -0.00464519
H       -0.31539922       2.19207140      -0.60378247      -0.01311274      -0.00159414       0.00894044
H       -1.42966966       3.37523534      -2.42803370       0.00268492       0.00401765      -0.00143833
H       -3.63905281       2.60964120      -3.26042111       0.00715642       0.00509789       0.00299138
H       -4.72927203       0.65913520      -2.18431359       0.01095504       0.00036092      -0.00140943
H       -3.77123136      -3.71095966       0.38634193       0.00850469       0.00012456      -0.00052632
H       -1.94875219      -5.12440904       1.29926971       0.00909879       0.00390503       0.00469035
H        0.19241962      -4.05962526       1.96443633       0.00608838      -0.00086189       0.00179148
H        0.52405666      -1.65636625       1.67388359      -0.01550914       0.00497017       0.00492944
