54
conf 5 ff=MMFF E=89.163 Rg=4.58 smiles=Cc1ccc(COc2c(O)cc(C(C)(C)C)cc2C(C)(C)C)cc1
C      7.27812532    -1.65489901    -0.02543193
C      5.90883041    -1.12710130    -0.33554900
C      5.48982983     0.10385359     0.18051079
C      4.20323616     0.58004456    -0.08091454
C      3.30797356    -0.17190240    -0.85331774
C      1.91760112     0.34576455    -1.13349588
C      3.72525655    -1.40963372    -1.35872966
C      5.01217022    -1.88547740    -1.09617348
O      0.78973952    -2.12543790     0.24753401
C     -0.25383465    -1.24423978     0.14627187
C     -1.53231124    -1.78354900     0.09394048
C     -2.64823415    -0.94390252     0.06960705
C     -4.08893100    -1.48383737     0.00482898
C     -4.17426508    -3.02389246    -0.09941983
C     -4.85639123    -1.06848767     1.27828243
C     -4.80736997    -0.90629915    -1.23438961
C     -2.41309759     0.45159985     0.13998370
C     -1.12209285     1.03364806     0.19982198
C     -0.95159934     2.56171276     0.37036766
C     -2.29339106     3.32687530     0.51921831
C     -0.23794933     3.17986521    -0.84784950
C     -0.14427411     2.86769440     1.65307592
C     -0.03669957     0.14145067     0.13066418
O      1.25612882     0.60212902     0.12011774
H      7.25253026    -2.24216960     0.89759557
H      7.99443226    -0.83548267     0.09576507
H      7.64570883    -2.28923246    -0.83889693
H      6.16293530     0.70113731     0.79153959
H      3.89636025     1.54012121     0.32978289
H      2.00765915     1.28760606    -1.68512544
H      1.36506690    -0.34729629    -1.78145256
H      3.04790428    -2.01992002    -1.95343594
H      5.31004319    -2.85485365    -1.49007257
H      1.54993840    -1.60943017     0.57853335
H     -1.62340139    -2.86487441     0.08914028
H     -5.21690132    -3.35870265    -0.15886379
H     -3.66386175    -3.39609181    -0.99540893
H     -3.73029584    -3.51348993     0.77517409
H     -4.35493149    -1.44012911     2.17977610
H     -4.94192341     0.01934148     1.37507285
H     -5.87615338    -1.47091131     1.27390119
H     -5.82320071    -1.30852239    -1.32541499
H     -4.26636664    -1.15501609    -2.15511745
H     -4.89950878     0.18434239    -1.19159373
H     -3.28853965     1.09517106     0.15929210
H     -2.91734244     3.22727167    -0.37675005
H     -2.12356692     4.40034706     0.66857621
H     -2.86762402     2.97318735     1.38366862
H     -0.27857776     4.27541196    -0.81809105
H      0.82151913     2.92065515    -0.88171728
H     -0.69892973     2.85516843    -1.78761696
H     -0.61564056     2.41301716     2.53249341
H      0.88460868     2.49950079     1.60480987
H     -0.08039118     3.94786520     1.83091640
