54
conf 3 ff=MMFF E=88.675 Rg=4.58 smiles=Cc1ccc(COc2c(O)cc(C(C)(C)C)cc2C(C)(C)C)cc1
C      7.10503039     1.19693191    -2.03183097
C      5.80946329     0.74512835    -1.42593789
C      5.11387980     1.57498116    -0.53970900
C      3.89093619     1.16953551     0.00000116
C      3.33914156    -0.07108357    -0.34345911
C      2.01101309    -0.50640530     0.22313052
C      4.02636322    -0.89140189    -1.24761261
C      5.24924134    -0.48526182    -1.78625740
O      0.61309642     2.18495994    -0.78845402
C     -0.35472974     1.33190661    -0.32964635
C     -1.51236354     1.88754168     0.19174186
C     -2.54266093     1.06256740     0.66203959
C     -3.81400036     1.68942456     1.26384917
C     -3.43577642     2.56833771     2.47620775
C     -4.85241302     0.65702893     1.75830800
C     -4.51211655     2.56461423     0.20040478
C     -2.36039257    -0.33340120     0.54027973
C     -1.20163459    -0.93400390    -0.02267149
C     -1.14451449    -2.47265101    -0.16563621
C     -0.14889126    -2.98923751    -1.23070850
C     -2.52147625    -3.05503031    -0.58659279
C     -0.75922618    -3.07661161     1.19884004
C     -0.17116372    -0.05613609    -0.38910812
O      1.04602666    -0.49267959    -0.84326627
H      7.75139923     0.34146766    -2.25457016
H      6.91321308     1.74647911    -2.95850453
H      7.65339889     1.84662691    -1.34160511
H      5.51948855     2.54617923    -0.26440855
H      3.36892201     1.83518365     0.68512721
H      2.10269932    -1.52822391     0.60854938
H      1.72913660     0.13551762     1.06902987
H      3.60461189    -1.84938949    -1.54498532
H      5.76045164    -1.13555294    -2.49260927
H      1.24554929     1.62853947    -1.28398977
H     -1.59484805     2.97026149     0.22747089
H     -2.90737265     1.98278831     3.23793438
H     -4.32782365     2.99911729     2.94591977
H     -2.78692206     3.40531884     2.19596701
H     -4.43825439     0.01192148     2.54196281
H     -5.20813427     0.01854145     0.94124951
H     -5.73279371     1.15450520     2.18282252
H     -4.76850460     1.97579570    -0.68833738
H     -5.43960846     2.99839234     0.59218997
H     -3.88255669     3.39873249    -0.12835242
H     -3.14923728    -0.98638990     0.90035647
H      0.89332788    -2.87086334    -0.92350377
H     -0.27837475    -4.06430112    -1.40703852
H     -0.29101992    -2.48109813    -2.19126260
H     -3.28305410    -2.94775659     0.19247639
H     -2.89448171    -2.56827094    -1.49538754
H     -2.45338178    -4.13072130    -0.78992542
H      0.21830064    -2.71529147     1.53592542
H     -1.48754186    -2.81616685     1.97577256
H     -0.70942144    -4.17039641     1.14781430
