54
conf 1 ff=MMFF E=88.461 Rg=4.58 smiles=Cc1ccc(COc2c(O)cc(C(C)(C)C)cc2C(C)(C)C)cc1
C      7.25582162     1.66649619    -0.98224174
C      5.88367509     1.22701720    -0.56535789
C      5.54381993    -0.13020021    -0.56356981
C      4.27584546    -0.54204578    -0.14748408
C      3.33037883     0.39529121     0.28865197
C      1.95696356    -0.05237446     0.72199485
C      3.67486017     1.75280702     0.29417357
C      4.94317613     2.16372300    -0.12270490
O      0.57295953     1.92741751    -1.36993905
C     -0.39016603     1.11464672    -0.83267787
C     -1.68219350     1.61356656    -0.74912101
C     -2.70524663     0.82003944    -0.22398277
C     -4.15307479     1.32336984    -0.08016965
C     -4.35673466     2.78140668    -0.55159544
C     -5.09791514     0.43660622    -0.91970496
C     -4.57984275     1.26146448     1.40254864
C     -2.36791710    -0.49929009     0.16859989
C     -1.06467834    -1.05103952     0.06281081
C     -0.83467740    -2.52584041     0.46249666
C      0.41483419    -3.18173874    -0.17044907
C     -2.02506635    -3.42363250     0.02780990
C     -0.70500555    -2.60243463     1.99621785
C     -0.06703497    -0.17502026    -0.38635851
O      1.25635986    -0.52732257    -0.44075960
H      7.22848346     2.66982682    -1.42021262
H      7.92466583     1.67634651    -0.11617917
H      7.66828382     0.99281015    -1.74069856
H      6.26348017    -0.87690891    -0.89168716
H      4.02521651    -1.60069429    -0.16948396
H      1.43445215     0.76560002     1.23671843
H      2.05712317    -0.87490111     1.43925897
H      2.95703382     2.50315884     0.62074269
H      5.19083415     3.22287769    -0.10319874
H      1.34896850     1.35415599    -1.52599502
H     -1.85635145     2.62552494    -1.09958634
H     -5.39977474     3.09558213    -0.42482152
H     -3.73760778     3.48107791     0.02195386
H     -4.11233088     2.90019025    -1.61363804
H     -4.80207179     0.43450788    -1.97552069
H     -5.10349829    -0.60421142    -0.57810256
H     -6.13172886     0.79715433    -0.86367013
H     -3.90747668     1.85697392     2.03150169
H     -4.57565775     0.23840174     1.79401139
H     -5.59560312     1.65110925     1.53797700
H     -3.16493632    -1.11663220     0.57665164
H      1.34804165    -2.80646491     0.25729249
H      0.42870424    -4.26408026     0.00827837
H      0.44062890    -3.02917986    -1.25541302
H     -2.94611094    -3.20001688     0.57571202
H     -2.23192861    -3.31342497    -1.04320197
H     -1.81484516    -4.48315977     0.21828630
H     -0.54407658    -3.63435644     2.32890902
H      0.13645025    -2.00204164     2.35838880
H     -1.60750882    -2.23213863     2.49653904
