54
conf 4 ff=MMFF E=88.675 Rg=4.58 smiles=Cc1ccc(COc2c(O)cc(C(C)(C)C)cc2C(C)(C)C)cc1
C      7.12543502     0.88839115     2.15856058
C      5.80512837     0.80680601     1.45155137
C      5.53499715    -0.24868343     0.57376513
C      4.29362211    -0.34325920    -0.05913689
C      3.29814727     0.61316948     0.17954025
C      1.95342709     0.49806668    -0.49346577
C      3.56265656     1.65736645     1.07467308
C      4.80444591     1.75073519     1.70752772
O      0.45155932     0.58647758     2.32748371
C     -0.45991872     0.27898072     1.35303772
C     -1.77720973     0.65843588     1.55663553
C     -2.75556107     0.35673757     0.60003761
C     -4.21161602     0.80573685     0.82304027
C     -5.17272133     0.42048553    -0.32434297
C     -4.76012227     0.15921333     2.11353635
C     -4.26545358     2.34292828     0.96267760
C     -2.34488192    -0.37502307    -0.53690698
C     -1.01001797    -0.81049367    -0.75794852
C     -0.69335310    -1.66439739    -2.00763096
C     -1.82974198    -2.68110028    -2.30315185
C     -0.55657293    -0.72386118    -3.22076194
C      0.59114649    -2.51952617    -1.90122588
C     -0.06390411    -0.39704028     0.19111577
O      1.27702627    -0.64611274     0.05601166
H      7.07900753     0.33706451     3.10270122
H      7.39214424     1.92947025     2.36891417
H      7.92578257     0.46703270     1.54120546
H      6.28944803    -1.00764453     0.37900527
H      4.10114258    -1.17494754    -0.73388949
H      1.38741095     1.43229258    -0.37550329
H      2.10193442     0.34295923    -1.56815414
H      2.80057720     2.40328070     1.29339291
H      4.98467722     2.56612499     2.40479775
H      1.25856181     0.08149070     2.10636338
H     -2.02530437     1.19387661     2.46883755
H     -5.22644168    -0.66617341    -0.45880751
H     -4.86477050     0.86880775    -1.27617267
H     -6.19224111     0.76882404    -0.11939218
H     -4.70880848    -0.93472688     2.05905047
H     -4.20143560     0.47054969     3.00298762
H     -5.80771208     0.43618059     2.28010116
H     -3.70016357     2.70112283     1.82998693
H     -5.29699328     2.69277142     1.08711367
H     -3.85143357     2.83413050     0.07408169
H     -3.09079281    -0.61645953    -1.28767465
H     -2.76121003    -2.19708694    -2.61388339
H     -2.04511501    -3.29874237    -1.42332020
H     -1.55686272    -3.35568103    -3.12386395
H     -1.47828284    -0.15749404    -3.39847441
H      0.24885277     0.00406039    -3.07531556
H     -0.33460396    -1.28647872    -4.13489600
H      1.50176668    -1.91694203    -1.94894326
H      0.60652591    -3.10511211    -0.97498627
H      0.66782286    -3.22658363    -2.73657427
