54
conf 0 ff=MMFF E=88.441 Rg=4.58 smiles=Cc1ccc(COc2c(O)cc(C(C)(C)C)cc2C(C)(C)C)cc1
C      7.39866359    -1.21324936     0.25520926
C      5.96618315    -0.95367929    -0.10583326
C      5.54641561     0.33298417    -0.46056797
C      4.20619380     0.58194724    -0.76444861
C      3.26084646    -0.45070367    -0.71297803
C      1.81176443    -0.17386411    -1.02600068
C      3.67873333    -1.73356354    -0.33719413
C      5.01937411    -1.98136567    -0.03298667
O      0.89774089    -1.37750818     1.79075977
C     -0.18512752    -0.78793346     1.19355207
C     -1.44193924    -1.29407409     1.49263201
C     -2.58069561    -0.71888267     0.92300361
C     -4.00036322    -1.24954953     1.19351422
C     -4.03944931    -2.47766199     2.13149410
C     -4.65910851    -1.67313071    -0.13729686
C     -4.85185860    -0.14397088     1.85423326
C     -2.38911301     0.40417301     0.08002859
C     -1.12087253     0.96757765    -0.21695376
C     -1.04556926     2.23507550    -1.09754657
C     -2.20350758     3.21880804    -0.77586043
C     -1.16538636     1.81235489    -2.57467798
C      0.24699902     3.06710063    -0.92694591
C     -0.01424775     0.28947951     0.31217233
O      1.27776990     0.64719887     0.02717744
H      7.68315488    -2.24180663     0.00951858
H      8.06831212    -0.54970469    -0.30202569
H      7.54991517    -1.05037472     1.32671259
H      6.26074059     1.15235568    -0.49952815
H      3.89874851     1.59075443    -1.03246314
H      1.74745931     0.37379394    -1.97308908
H      1.26389685    -1.11693286    -1.15837549
H      2.96189537    -2.55003732    -0.27009234
H      5.31955495    -2.98400082     0.26391408
H      1.65270556    -0.78003964     1.62275245
H     -1.49772641    -2.13899177     2.17102264
H     -3.47805813    -3.32188881     1.71443443
H     -5.06875211    -2.82166559     2.28931694
H     -3.62360740    -2.24502238     3.11877987
H     -4.06026380    -2.43645632    -0.64818922
H     -4.77801622    -0.83179823    -0.82862742
H     -5.65838291    -2.09117272     0.03189986
H     -4.97353218     0.73025167     1.20542078
H     -4.39348378     0.20129769     2.78855405
H     -5.85812647    -0.50886514     2.09126821
H     -3.27606361     0.85186611    -0.36241348
H     -3.18473246     2.82509210    -1.05994726
H     -2.23100761     3.45977826     0.29333289
H     -2.08982367     4.16091642    -1.32593764
H     -0.35764861     1.13159494    -2.86417457
H     -1.12109269     2.68212579    -3.24024804
H     -2.11203745     1.29538343    -2.77102632
H      0.45338180     3.27375486     0.12935951
H      1.12140702     2.57868315    -1.36456193
H      0.16773760     4.03354683    -1.44007290
