54
conf 6 ff=MMFF E=89.163 Rg=4.58 smiles=Cc1ccc(COc2c(O)cc(C(C)(C)C)cc2C(C)(C)C)cc1
C      7.28988132    -0.80389641    -1.34984264
C      5.94699708    -0.56131265    -0.72733258
C      5.39672449     0.72473836    -0.70730782
C      4.13204310     0.94510705    -0.15735844
C      3.38942984    -0.11887773     0.37177771
C      2.02226200     0.12295342     0.96506069
C      3.93696724    -1.40756341     0.33960817
C      5.20179333    -1.62717406    -0.21129649
O      0.85816393    -1.78655734    -1.10492713
C     -0.20938775    -1.10879044    -0.57883352
C     -1.43825328    -1.75504898    -0.59712299
C     -2.58532994    -1.09541195    -0.14993891
C     -3.97305689    -1.76283389    -0.14020415
C     -3.95951555    -3.23793102    -0.60261237
C     -4.92402142    -0.99636121    -1.08433482
C     -4.55145938    -1.74318807     1.29172665
C     -2.43822786     0.24826629     0.27498036
C     -1.20029498     0.93813031     0.30078129
C     -1.13768664     2.43438065     0.68866614
C     -2.52717592     3.06464753     0.97171416
C     -0.30381845     2.64154743     1.96819912
C     -0.52534525     3.25905281    -0.46705741
C     -0.06817308     0.19312326    -0.07623559
O      1.18752470     0.74526139    -0.03031116
H      7.93800455     0.07116385    -1.23394060
H      7.17431076    -1.02008977    -2.41634146
H      7.79607903    -1.64813814    -0.87000509
H      5.94930333     1.56521057    -1.12135846
H      3.72148564     1.95307590    -0.15137658
H      2.13305093     0.80792979     1.81241029
H      1.59911438    -0.80769825     1.36545330
H      3.37873531    -2.25465925     0.73424132
H      5.60172207    -2.63863651    -0.23529821
H      1.53846485    -1.11335062    -1.29911837
H     -1.46865825    -2.76931290    -0.98173758
H     -3.31533149    -3.85435977     0.03526040
H     -4.96521003    -3.67354245    -0.56335339
H     -3.60923622    -3.33414906    -1.63691157
H     -4.52685117    -0.96772117    -2.10595217
H     -5.08098155     0.03940609    -0.76401811
H     -5.91066591    -1.47269485    -1.12324152
H     -5.52276565    -2.25002032     1.33255557
H     -4.70791428    -0.72484392     1.66363623
H     -3.88046561    -2.25088239     1.99479001
H     -3.34236992     0.76549546     0.58474833
H     -3.02055057     2.58856108     1.82723556
H     -2.43757652     4.13134712     1.21173728
H     -3.19066173     2.98974666     0.10206516
H      0.76336692     2.49401551     1.79453459
H     -0.40782704     3.66490839     2.34856286
H     -0.61783177     1.95706331     2.76442457
H     -1.08348774     3.10601769    -1.39837378
H     -0.54473306     4.33167609    -0.23993914
H      0.51944010     3.00222051    -0.66443104
