54
conf 7 ff=MMFF E=89.403 Rg=4.58 smiles=Cc1ccc(COc2c(O)cc(C(C)(C)C)cc2C(C)(C)C)cc1
C      7.34107253     1.17417435     0.59764113
C      5.95590671     0.76195360     0.19626543
C      5.13216882     1.64195756    -0.51417872
C      3.83045632     1.27185459    -0.86070090
C      3.32500750     0.01923263    -0.49055490
C      1.91834031    -0.38450651    -0.86198404
C      4.14734351    -0.85546251     0.23208321
C      5.44879961    -0.48489254     0.57749819
O      0.88928856     2.00479839     0.72554734
C     -0.19812521     1.20246074     0.50737748
C     -1.44076784     1.81740113     0.47199510
C     -2.60703517     1.05441455     0.33178461
C     -3.97947126     1.75222679     0.28653846
C     -5.17089923     0.78872653     0.08391653
C     -4.01207467     2.76182280    -0.88226338
C     -4.21973285     2.50405082     1.61342032
C     -2.45840155    -0.34918371     0.27048885
C     -1.20275412    -1.01030041     0.30911446
C     -1.12526523    -2.55635043     0.33218467
C     -0.40703241    -3.09449387    -0.92091721
C     -0.38046682    -3.03338627     1.60057900
C     -2.51187472    -3.25238638     0.36685403
C     -0.06355660    -0.18486290     0.35976599
O      1.19914999    -0.72233555     0.33948133
H      8.00446530     0.30516417     0.66056342
H      7.31581419     1.67156561     1.57205581
H      7.77349260     1.85954127    -0.13890924
H      5.49906642     2.62458366    -0.80298327
H      3.21106589     1.97569156    -1.41378303
H      1.97463460    -1.27169023    -1.50168979
H      1.42908736     0.40015097    -1.45394922
H      3.77144778    -1.82996070     0.53811973
H      6.06413722    -1.17713207     1.14788452
H      1.60717959     1.41429592     1.02492255
H     -1.48385860     2.89856698     0.57208004
H     -6.11946383     1.33737977     0.03933178
H     -5.25584067     0.07127384     0.90839740
H     -5.07926055     0.22581879    -0.85233267
H     -3.27172419     3.56030982    -0.76278424
H     -4.99283692     3.24568261    -0.95961482
H     -3.80905053     2.26456462    -1.83820213
H     -5.20430597     2.98614299     1.62198924
H     -4.17622164     1.81887074     2.46836706
H     -3.47618894     3.29028559     1.78441399
H     -3.35967779    -0.94827652     0.20066526
H     -0.51123550    -4.18326079    -1.00151755
H     -0.81648148    -2.65236527    -1.83631682
H      0.66607030    -2.89776579    -0.89902718
H      0.66886723    -2.72515210     1.61800346
H     -0.85458871    -2.63859015     2.50701733
H     -0.38449747    -4.12759597     1.67255970
H     -2.40712044    -4.34339433     0.41429968
H     -3.09860500    -3.03034694    -0.53227363
H     -3.09444644    -2.95127146     1.24550683
