54
conf 8 ff=MMFF E=92.435 Rg=4.57 smiles=Cc1ccc(COc2c(O)cc(C(C)(C)C)cc2C(C)(C)C)cc1
C      7.19813033     1.32104266     0.37100339
C      5.88773912     0.59189558     0.37780722
C      5.16638106     0.44010119     1.56727147
C      3.92906266    -0.20941687     1.56935942
C      3.38496441    -0.70756792     0.37874334
C      2.05033756    -1.42099995     0.37537189
C      4.10447902    -0.54364257    -0.81295699
C      5.34081484     0.10599960    -0.81462120
O     -0.03955567    -3.18398621     0.30044367
C     -0.77868340    -2.04126408     0.13470451
C     -2.15442632    -2.10589196     0.37134728
C     -2.96789227    -0.98739727     0.17282426
C     -4.48763190    -1.00662771     0.42382856
C     -4.85356025     0.05293173     1.48621277
C     -5.23557160    -0.69051430    -0.88960118
C     -5.02060583    -2.36455622     0.93562595
C     -2.34179793     0.19174819    -0.28812026
C     -0.95226055     0.29716057    -0.54096192
C     -0.34656979     1.62848827    -1.05864518
C      0.63087699     2.21323958    -0.01622403
C     -1.40229145     2.73598978    -1.32191264
C      0.38121392     1.41695564    -2.40622704
C     -0.16455537    -0.85050986    -0.28818722
O      1.18011312    -0.75375894    -0.54194258
H      7.85258504     0.94105903    -0.42053562
H      7.72571802     1.18517984     1.32096032
H      7.03058175     2.39024063     0.20891778
H      5.56313379     0.82822868     2.50254606
H      3.38949010    -0.31612788     2.50750362
H      2.22796536    -2.45027813     0.04430623
H      1.63325116    -1.42442439     1.39042074
H      3.69306374    -0.91444357    -1.74971790
H      5.87227046     0.23103365    -1.75506239
H     -0.64141103    -3.93290348     0.43919146
H     -2.58103750    -3.04344991     0.71043539
H     -4.61636160     1.07066278     1.15781722
H     -4.31225710    -0.12501716     2.42302102
H     -5.92626073     0.03234570     1.71171297
H     -6.32159476    -0.73476545    -0.74635532
H     -4.97315899    -1.40886052    -1.67534446
H     -5.00402529     0.31061693    -1.26918517
H     -4.83684106    -3.16862267     0.21348967
H     -4.55665005    -2.64706335     1.88785568
H     -6.10359707    -2.32582359     1.10409976
H     -2.97950776     1.05550392    -0.45372954
H      1.50813646     1.58311243     0.14301162
H      0.13923277     2.34232982     0.95526084
H      1.00529957     3.19407359    -0.33263629
H     -1.93653255     3.01396135    -0.40576835
H     -0.93053579     3.65115797    -1.70065446
H     -2.13828359     2.42259056    -2.07170287
H      0.71436389     2.37261659    -2.82866365
H     -0.28140741     0.94270929    -3.13976879
H      1.27565943     0.79493842    -2.31943900
