54
conf 9 ff=MMFF E=92.435 Rg=4.57 smiles=Cc1ccc(COc2c(O)cc(C(C)(C)C)cc2C(C)(C)C)cc1
C      7.19120159    -0.72820557    -1.07932450
C      5.84996174    -0.10121150    -0.84104029
C      5.02020648     0.23016222    -1.91803610
C      3.75611658     0.78321133    -1.69656468
C      3.29405472     1.00279609    -0.39270716
C      1.93038874     1.61078714    -0.14576226
C      4.12278728     0.65899191     0.68419639
C      5.38586990     0.10584044     0.46236105
O     -0.23168216     3.18126317     0.43765139
C     -0.89444590     1.98116134     0.42793247
C     -2.28714539     1.99812688     0.31414654
C     -3.02221932     0.81037270     0.34692639
C     -4.55712570     0.77604287     0.22098125
C     -4.96055968    -0.07884236    -1.00034528
C     -5.16995516     0.16112578     1.49799132
C     -5.20118888     2.16869263     0.03211105
C     -2.29904567    -0.39118575     0.51463175
C     -0.88913021    -0.45028962     0.63505972
C     -0.17354881    -1.81318249     0.82938491
C      0.65798584    -1.81942428     2.13280598
C      0.73708591    -2.11712090    -0.37989105
C     -1.14450791    -3.01902549     0.94602250
C     -0.18592502     0.77483920     0.55704984
O      1.17899121     0.72102296     0.68350751
H      7.62574765    -0.37528543    -2.02051895
H      7.09301599    -1.81730464    -1.12118490
H      7.89250722    -0.46622756    -0.28009247
H      5.35251312     0.05874803    -2.93930041
H      3.13155792     1.03380333    -2.55082986
H      1.42623016     1.78359470    -1.10506364
H      2.08389908     2.56556821     0.36940905
H      3.77689920     0.81217356     1.70457390
H      6.00349183    -0.16365655     1.31584042
H     -0.88063404     3.90076808     0.49707294
H     -2.78890863     2.95295425     0.20218854
H     -6.04855609    -0.08678154    -1.13509622
H     -4.51321046     0.31373380    -1.92123568
H     -4.64414559    -1.12276206    -0.90035979
H     -4.85550454    -0.87688505     1.65167268
H     -4.87641264     0.72891241     2.38890394
H     -6.26519976     0.15945862     1.44938113
H     -4.99585392     2.82749555     0.88392398
H     -6.29141456     2.09089310    -0.05793421
H     -4.83749012     2.66142221    -0.87714415
H     -2.87508678    -1.31145610     0.55270169
H      1.50862160    -1.13381264     2.10406340
H      0.03905931    -1.54245777     2.99436309
H      1.07501256    -2.81444979     2.32965683
H      0.16928551    -2.08750452    -1.31738263
H      1.56385701    -1.41064191    -0.47650484
H      1.18714220    -3.11338606    -0.29475645
H     -1.82684424    -2.90751364     1.79694683
H     -0.59549113    -3.95661683     1.09777174
H     -1.74225805    -3.14873245     0.03614673
