54
conf 2 ff=MMFF E=88.675 Rg=4.58 smiles=Cc1ccc(COc2c(O)cc(C(C)(C)C)cc2C(C)(C)C)cc1
C      7.06836166     2.46472017    -0.04405647
C      5.75320291     1.79002597     0.21064710
C      4.70119937     2.49117833     0.81028639
C      3.46526362     1.87438422     1.01835175
C      3.25834917     0.54670770     0.62332863
C      1.92079585    -0.11858020     0.83021331
C      4.30590474    -0.14695772     0.00353238
C      5.54135577     0.47052435    -0.20357539
O      0.42244134     2.24638215    -0.71348998
C     -0.47222957     1.23618167    -0.48121405
C     -1.80848771     1.57545925    -0.33979593
C     -2.77020422     0.58139708    -0.11570589
C     -4.24890565     0.97086944     0.06644856
C     -4.75707596     1.68124084    -1.20688192
C     -5.18907057    -0.22801757     0.32605105
C     -4.38957080     1.92655213     1.27153852
C     -2.32111814    -0.75805302    -0.08455813
C     -0.96417514    -1.14203800    -0.26236977
C     -0.60226479    -2.64535734    -0.27611321
C     -0.52174898    -3.14231776     1.18044463
C     -1.67974142    -3.48174321    -1.01900961
C      0.72894375    -2.98623153    -0.98618244
C     -0.04100268    -0.09412521    -0.39053443
O      1.31160639    -0.30410839    -0.45938296
H      7.88990829     1.74107234    -0.01906709
H      7.27610150     3.21775376     0.72341391
H      7.05540531     2.95193766    -1.02383877
H      4.83650218     3.52572654     1.11840581
H      2.66261841     2.44304655     1.48457620
H      2.07542687    -1.09833114     1.29630914
H      1.30299174     0.47444141     1.51848001
H      4.15935331    -1.17193406    -0.33111529
H      6.33717883    -0.08543637    -0.69420949
H      1.25631187     1.80886286    -0.97501325
H     -2.08459661     2.62427087    -0.40399340
H     -5.81832513     1.94140843    -1.11765410
H     -4.64392482     1.03905561    -2.08841370
H     -4.21502502     2.61208429    -1.40661421
H     -4.90909796    -0.77038312     1.23668871
H     -6.22626872     0.10408576     0.45523245
H     -5.18133950    -0.93621879    -0.51071614
H     -4.00601738     1.46361782     2.18853662
H     -5.43902579     2.19177386     1.44546348
H     -3.84363163     2.86468908     1.12344731
H     -3.05374450    -1.54012611     0.08849423
H     -0.27016944    -4.20836278     1.22172702
H     -1.47452093    -3.00838005     1.70597900
H      0.24135296    -2.59905841     1.74814506
H     -1.37078910    -4.52933596    -1.11995065
H     -2.63785298    -3.50442345    -0.48989192
H     -1.85780607    -3.08944649    -2.02716372
H      1.60376592    -2.67010273    -0.41228966
H      0.84381215    -4.06957228    -1.11581356
H      0.77957732    -2.53080844    -1.98172045
