29
tempo_parent/ox q=1 m=1 E=-13154.516025eV conf=8 model=uma-s-1p2p1
C        2.58734942      -0.00585570      -0.88899914       0.00143487      -0.00006278      -0.00257862
C        1.35577761       0.19328360      -0.02037868      -0.00557434      -0.00261497       0.00081317
C        1.64907460      -0.23967257       1.42521862      -0.00017180       0.00028096       0.00090166
C        0.82781080       1.62960277      -0.10819538      -0.00196732      -0.00459903       0.00065764
C       -0.57726676       1.80950184       0.44363694       0.00164021      -0.00125025      -0.00083452
C       -1.54663448       0.92437010      -0.32315196       0.00396798      -0.00929748       0.00183111
C       -1.21896266      -0.57134226      -0.25314079       0.00433575      -0.00790700      -0.00019680
C       -1.98241332      -1.36336788      -1.30235012       0.00307284       0.00106230       0.00205173
C       -1.46557808      -1.16387168       1.14349378      -0.00148348       0.00008753      -0.00304276
N        0.27103047      -0.74803384      -0.53906098      -0.00207441      -0.00845372      -0.01226910
O        0.60543442      -1.67839811      -1.17953213      -0.00096670       0.01225726       0.01389045
H        2.35859080       0.12464872      -1.94673210       0.00410784       0.00368559      -0.00714624
H        3.30817917       0.75850222      -0.60157407       0.00971693      -0.00138441      -0.00032689
H        3.04403654      -0.98210571      -0.74014127      -0.00113652      -0.00278689       0.00063507
H        1.79283236      -1.31782187       1.49701340       0.00153264       0.00819775      -0.00238468
H        0.88512471       0.07290497       2.13040423      -0.00252673       0.00048231       0.00204073
H        2.58558041       0.23977306       1.70746203       0.00203896       0.00117912      -0.00014555
H        0.85174956       1.94718390      -1.15444978      -0.00010445      -0.00004435      -0.00109829
H        1.54757018       2.25193233       0.42555905      -0.00171110      -0.00314875      -0.00016301
H       -0.87584708       2.85108712       0.32538060       0.00042504       0.00596196       0.00795332
H       -0.61342644       1.60458085       1.51546490      -0.00029192      -0.00432411       0.00138425
H       -1.56455562       1.22870217      -1.37332794       0.00231204      -0.00317177       0.00293432
H       -2.56544304       1.03109340       0.05219956      -0.00430728       0.00613914      -0.00262554
H       -1.85497450      -2.43717679      -1.18212074      -0.00303864       0.00170841       0.00006312
H       -1.68911583      -1.07884728      -2.31281229       0.00143212       0.00758127       0.00356617
H       -3.03807116      -1.12628007      -1.17638494       0.00217251       0.00216397       0.00004528
H       -1.11689892      -0.52459709       1.94871302      -0.00680882      -0.00359732       0.00068807
H       -1.01678082      -2.15245278       1.24205162       0.00043465      -0.00365765      -0.00036115
H       -2.54417247      -1.27734355       1.24575474      -0.00646062       0.00551289      -0.00628291
