13
SMD(acetonitrile)-opt r2scan/def2-svp q=0 m=1
C -0.15788792 -1.11964636 0.01389923
C -1.48482501 -0.71273268 -0.01197179
C -1.48498983 0.71276268 -0.01209084
C -0.15800252 1.11949991 0.01372277
N 0.63508781 -0.00003711 0.03434006
C 2.08373075 0.00001904 -0.01459381
H 2.46959428 -0.89278554 0.49612924
H 2.44877937 -0.00030218 -1.05484206
H 2.46948300 0.89320497 0.49554165
H 0.28982834 2.11356297 0.02240157
H -2.35433984 1.37174813 -0.01912895
H -2.35414258 -1.37175700 -0.01890230
H 0.28992872 -2.11371645 0.02275824
