23
SMD(acetonitrile)-opt r2scan/def2-svp q=0 m=1
C -3.56443699 -0.54545408 0.11550725
C -3.74781705 0.66541328 -0.55938740
C -2.64077410 1.32242773 -1.11054983
C -1.36313409 0.76200507 -1.01007531
C -1.17024703 -0.45293576 -0.31641583
C -2.28540818 -1.09165909 0.25210107
N 0.10026331 -1.00891929 -0.19046332
C 1.26723272 -0.24988172 -0.15453130
C 2.38805692 -0.70194824 0.56257475
C 3.56667380 0.04846992 0.58825180
C 3.63550470 1.27960138 -0.07121038
C 2.51722434 1.75123086 -0.76983803
C 1.34702457 0.98740769 -0.83071030
S 0.00108633 1.51734307 -1.86530281
H -4.41996602 -1.06834956 0.55326366
H -4.74521893 1.10223574 -0.66023667
H -2.76933094 2.27076248 -1.64160642
H -2.13297492 -2.02915022 0.79681783
H 0.13598746 -1.86986957 0.35117745
H 2.32235609 -1.65739732 1.09323430
H 4.43171679 -0.33115767 1.14013616
H 4.55226622 1.87517772 -0.04610268
H 2.55623300 2.71300651 -1.29081200
