42
mv_ip2 conf 3 ff=UFF E=137.754
C      4.96904568     0.03579763    -0.03331147
N      3.52466968     0.00827265     0.03513625
C      2.83617345    -1.19254338    -0.11797249
C      1.48238192    -1.28323289    -0.05145097
C      0.75084555    -0.07695782     0.20406389
C     -0.79384481    -0.06908226     0.12633756
C     -1.50899786    -1.26164401    -0.31127700
C     -2.89011995    -1.11130306    -0.45258025
N     -3.53537317     0.05762189    -0.23640162
C     -4.95037206     0.15003185    -0.54764386
C     -2.86504395     1.11097014     0.28987373
C     -1.52063425     1.09085305     0.51802695
C      1.46692316     1.11711968     0.43243984
C      2.85871305     1.10409563     0.38287611
F     -1.57559660     0.14333235    -0.29136499
P      0.10943074     0.16654328    -0.25612506
F      0.81933513    -0.81272210     1.02478597
F      0.36122682    -1.23530953    -1.21490374
F      1.71503645     0.66866778    -0.48468014
F     -1.39613144    -0.40371610     0.38160856
F     -0.03330110     1.47320432     0.84067940
F     -1.57559660     0.14333235    -0.29136499
P      0.10943074     0.16654328    -0.25612506
F      0.81933513    -0.81272210     1.02478597
F      0.36122682    -1.23530953    -1.21490374
F      1.71503645     0.66866778    -0.48468014
F     -1.39613144    -0.40371610     0.38160856
F     -0.03330110     1.47320432     0.84067940
H      5.29212365    -0.65676774    -0.82220487
H      5.33564914     1.07791311    -0.27991687
H      5.40693808    -0.31234658     0.96396596
H      3.37995921    -2.10757868    -0.33407540
H      1.08777277    -2.22520465    -0.22243372
H     -1.04408647    -2.15394176    -0.59501559
H     -3.33564896    -1.98949580    -0.86870720
H     -5.47671152    -0.37898088     0.27232330
H     -5.29126062     1.19402476    -0.55434905
H     -5.11624461    -0.29708688    -1.52855914
H     -3.33944739     2.05219741     0.50500703
H     -1.08404646     1.99242892     0.91174506
H      1.03438131     2.08913926     0.60544660
H      3.32625543     2.03570041     0.54447289
