42
mv_ip2 conf 9 ff=UFF E=173.745
C      5.03252228     0.05955245     0.46499540
N      3.51561018    -0.00713135     0.36678562
C      2.87073212     1.07951955     0.87643600
C      1.42884842     1.04586051     0.78445436
C      0.69957892    -0.00976797     0.20972059
C     -0.71865431    -0.00066791     0.14440171
C     -1.49023316    -1.22131180    -0.29206363
C     -2.82442428    -1.16066771    -0.40457493
N     -3.54039750    -0.04894872    -0.14038198
C     -5.02499694     0.05934737    -0.33379837
C     -2.83772998     1.12463550     0.30432971
C     -1.53177597     1.12376057     0.41894116
C      1.53768828    -1.11881504    -0.25203156
C      2.90765590    -1.10025638    -0.13817911
F     -0.44064758    -0.80468194     1.49023912
P      0.33062643     0.18712617     0.39550539
F     -1.01736105    -0.04063153    -0.71092706
F      1.45237946    -0.96961937     0.07815635
F      1.04655102     1.16494918    -0.72147553
F     -0.44232115    -0.72185201    -0.84647667
F     -0.92922713     1.18470950     0.31497840
F     -0.44064758    -0.80468194     1.49023912
P      0.33062643     0.18712617     0.39550539
F     -1.01736105    -0.04063153    -0.71092706
F      1.45237946    -0.96961937     0.07815635
F      1.04655102     1.16494918    -0.72147553
F     -0.44232115    -0.72185201    -0.84647667
F     -0.92922713     1.18470950     0.31497840
H      5.35742027     0.10699594     1.57533666
H      5.37138230     0.92934571    -0.10026716
H      5.46575315    -0.90776408     0.00633482
H      3.33240016     1.85764734     1.26792678
H      0.94584380     1.95032274     1.16129850
H     -1.00077433    -2.08206028    -0.49633210
H     -3.37465004    -1.98606844    -0.70434835
H     -5.28865089     0.92978261    -0.82028403
H     -5.48902402     0.05421877     0.73951756
H     -5.37710701    -0.83225503    -0.84853835
H     -3.46843545     1.98131520     0.53653763
H     -1.07532315     2.01537514     0.72045676
H      1.09696819    -1.94112514    -0.71184349
H      3.47977307    -1.90083955    -0.48412065
