42
mv_ip2 conf 2 ff=UFF E=34.098
C      4.91040694    -0.47113971     0.79248685
N      3.47687773    -0.30464967     0.54328792
C      2.68914499     0.28643492     1.48994003
C      1.31411382     0.42255947     1.28639142
C      0.73036861    -0.06529820     0.10731602
C     -0.73059572     0.06920878    -0.12711481
C     -1.46077733    -0.97122159    -0.72170492
C     -2.83364889    -0.82522239    -0.93300588
N     -3.47765625     0.31833715    -0.55403753
C     -4.91016315     0.46692224    -0.81987921
C     -2.78238173     1.35148679     0.00743249
C     -1.40890301     1.24259140     0.23627711
C      1.55520870    -0.68775069    -0.84209932
C      2.92637625    -0.80376697    -0.60297578
F     -1.36151164     0.71468842    -0.66187908
P      0.00000004    -0.00000020     0.00000004
F      1.36151141    -0.71468770     0.66187963
F      0.10322947    -1.02524383    -1.31939246
F      0.96861031     1.11385426    -0.78974598
F     -0.10322839     1.02524322     1.31939216
F     -0.96861121    -1.11385417     0.78974569
F     -1.25018947     0.64764184    -0.90562927
P     -0.00000020     0.00000028     0.00000014
F      1.25018889    -0.64764170     0.90562873
F      0.38445457    -1.02684710    -1.26505219
F      1.04489131     1.15270241    -0.61810600
F     -0.38445311     1.02684627     1.26505304
F     -1.04489199    -1.15270201     0.61810556
H      5.30096855     0.35846296     1.42100150
H      5.48054583    -0.46423553    -0.16181552
H      5.08727238    -1.43543102     1.31377449
H      3.12087077     0.65567990     2.41287124
H      0.71016289     0.88650938     2.05604452
H     -0.97876353    -1.89735091    -1.00836161
H     -3.38079596    -1.63639582    -1.39900683
H     -5.38562578     1.12861696    -0.06363635
H     -5.42466323    -0.51740767    -0.77318766
H     -5.05709305     0.90554813    -1.82928478
H     -3.28744380     2.27058856     0.28073646
H     -0.87898158     2.07914370     0.67415189
H      1.14763698    -1.06938920    -1.76970990
H      3.54753856    -1.29283095    -1.34426052
