42
mv_ip2 conf 5 ff=UFF E=142.116
C     -5.16985154     0.11024538     0.44754024
N     -3.71088897     0.01443521     0.31158239
C     -3.05970089    -1.12096007    -0.14805949
C     -1.64738176    -1.11297992    -0.35997054
C     -0.81103287     0.01080188     0.02902549
C      0.81432726     0.00166464    -0.05995752
C      1.57679633    -1.24131379    -0.12658530
C      3.00078994    -1.17959255    -0.21377280
N      3.70474214     0.00924404    -0.12266362
C      5.18557147    -0.07424562    -0.09110746
C      3.02275355     1.15756079     0.01045829
C      1.62091767     1.17498513     0.00933405
C     -1.57048793     1.16579532     0.44189578
C     -2.97276653     1.11522640     0.57059199
F      1.38933224    -0.92144219    -0.59545111
P     -0.01385240     0.03052822    -0.48272868
F     -1.03563697    -1.23625572    -0.78807181
F      1.06989204     1.26061673    -0.09668731
F     -0.02525487    -0.51349601     1.18058089
F      0.02617406     0.36349193     1.10545126
F     -1.41065408     1.01655705    -0.32309323
F      1.38933224    -0.92144219    -0.59545111
P     -0.01385240     0.03052822    -0.48272868
F     -1.03563697    -1.23625572    -0.78807181
F      1.06989204     1.26061673    -0.09668731
F     -0.02525487    -0.51349601     1.18058089
F      0.02617406     0.36349193     1.10545126
F     -1.41065408     1.01655705    -0.32309323
H     -5.61004567     0.69959657    -0.40718836
H     -5.47671039     0.69125416     1.39242997
H     -5.69986477    -0.89140893     0.50670165
H     -3.64757984    -2.04668356    -0.39207222
H     -1.16327259    -2.01476363    -0.81772625
H      1.07883408    -2.20831982    -0.06158956
H      3.55170137    -2.17169903    -0.32251262
H      5.55418939    -0.49192257     0.89879882
H      5.63560539    -0.78638704    -0.88357478
H      5.68836908     0.90882103    -0.24527346
H      3.55535196     2.07329030     0.15155534
H      1.09532537     2.11393930     0.03920586
H     -1.06173610     2.05232988     0.69880483
H     -3.48395516     2.04108650     0.87344407
