42
mv_ip2 conf 1 ff=UFF E=34.097
C      4.98023637     0.42117271    -0.10287851
N      3.52272986     0.28267611    -0.06661844
C      2.93221865    -0.81168240    -0.63207096
C      1.54194552    -0.94506415    -0.63919408
C      0.74050751     0.05947485    -0.07556792
C     -0.74020970    -0.06275534    -0.07388816
C     -1.55182065     1.05378306    -0.32628923
C     -2.94194297     0.91874199    -0.32135801
N     -3.52211380    -0.28946443    -0.05735004
C     -4.98052683    -0.41797349    -0.09392710
C     -2.75059903    -1.39331402     0.17148496
C     -1.35713916    -1.29855647     0.17369412
C      1.36745729     1.18495873     0.48060132
C      2.76075718     1.28148076     0.46991798
F     -1.33540237    -0.80233007     0.61281656
P     -0.00000049     0.00000031     0.00000003
F     -0.13310085     1.14720490     1.21193326
F      1.00078031    -0.91802169     0.97890227
F     -1.00078041     0.91802233    -0.97890265
F      1.33540235     0.80232856    -0.61281670
F      0.13310146    -1.14720434    -1.21193278
F     -1.36274213    -0.78245695     0.57729594
P     -0.00000020     0.00000003    -0.00000011
F     -0.19624680     1.19476645     1.15611257
F      0.95236272    -0.87342396     1.06428874
F     -0.95236380     0.87342431    -1.06428848
F      1.36274244     0.78245636    -0.57729617
F      0.19624776    -1.19476624    -1.15611249
H      5.28100070     0.93905322    -1.03787614
H      5.47264542    -0.57476490    -0.06481575
H      5.34309643     1.00682823     0.76955300
H      3.53518020    -1.59007482    -1.08492478
H      1.09811123    -1.81736466    -1.10223943
H     -1.11652198     2.02006186    -0.54794233
H     -3.55318741     1.78832098    -0.53289309
H     -5.46851945     0.52923440     0.22304258
H     -5.32390383    -1.21821066     0.59709414
H     -5.30579812    -0.66584966    -1.12622381
H     -3.21011579    -2.35683431     0.35857129
H     -0.76866970    -2.18320446     0.38200081
H      0.78723428     1.97880967     0.93384933
H      3.22794778     2.16051721     0.89835259
