42
mv_ip2 conf 0 ff=UFF E=34.097
C      4.94803579     0.63422944    -0.48286100
N      3.50320063     0.41389125    -0.38946213
C      2.89509238     0.41915572     0.83375525
C      1.51316226     0.24762605     0.94127701
C      0.73735673     0.08115695    -0.21609858
C     -0.73400401    -0.10319101    -0.12346664
C     -1.39735993    -1.00872438    -0.96553122
C     -2.78109355    -1.16840109    -0.86306876
N     -3.49628196    -0.45936488     0.05989261
C     -4.95130701    -0.61273105     0.12471432
C     -2.87346032     0.44273656     0.87497997
C     -1.49114079     0.62925580     0.80354006
C      1.38032651     0.09906218    -1.46323344
C      2.76433232     0.27449582    -1.52994623
F     -1.00778222    -0.68509839    -1.14786410
P     -0.00000002    -0.00000006     0.00000000
F      1.32251026    -0.30156886    -0.98112146
F      0.19473581    -1.49742166     0.72276072
F     -0.19473536     1.49742165    -0.72276076
F      1.00778195     0.68509858     1.14786420
F     -1.32251042     0.30156874     0.98112140
F     -1.00867356    -0.68541217    -1.14689332
P      0.00000002    -0.00000002     0.00000001
F      1.32178495    -0.30214663    -0.98192086
F      0.19502534    -1.49716250     0.72321930
F     -0.19502579     1.49716245    -0.72321935
F      1.00867390     0.68541197     1.14689336
F     -1.32178486     0.30214690     0.98192086
H      5.46799236     0.22891883     0.41221749
H      5.15357446     1.72266410    -0.55995436
H      5.36894846     0.12107794    -1.37466575
H      3.47799647     0.55241807     1.73763126
H      1.05860791     0.23109849     1.92382361
H     -0.85025054    -1.60050616    -1.68854989
H     -3.27788243    -1.86764697    -1.52547648
H     -5.32255370    -0.42603246     1.15579509
H     -5.25252922    -1.64505357    -0.15701731
H     -5.43207450     0.10779845    -0.56996554
H     -3.44458484     1.02755431     1.58655431
H     -1.02283021     1.35733581     1.45384252
H      0.81622213     0.00057832    -2.38214355
H      3.24250462     0.30059747    -2.50216173
