42
mv_ip2 conf 7 ff=UFF E=146.100
C     -4.93969152     0.60888676     0.36058049
N     -3.51550953     0.29737390     0.24066287
C     -2.85865785     0.97737449    -0.78898019
C     -1.50024887     0.78680608    -0.90259196
C     -0.79078135     0.00823031     0.03157829
C      0.73252355    -0.03779037    -0.00829640
C      1.54551331     1.01037164    -0.50253154
C      2.95304992     0.81689352    -0.58738325
N      3.56217235    -0.40130011    -0.19103854
C      5.02199104    -0.47236589    -0.32018816
C      2.80466843    -1.41700847     0.30105091
C      1.36701342    -1.29502827     0.40446825
C     -1.47338827    -0.63570076     1.10594881
C     -2.86240124    -0.45441575     1.19442419
F      1.29508049    -0.85922068    -0.20123894
P     -0.10457748     0.09538887    -0.29126166
F     -0.94834544    -1.35877291    -0.61007722
F      1.01673964    -0.79122219     0.63015353
F      0.97081070     1.44245002    -0.14687402
F     -0.75167494     0.43304852     1.24516009
F     -1.47803297     1.03832837    -0.62586177
F      1.29508049    -0.85922068    -0.20123894
P     -0.10457748     0.09538887    -0.29126166
F     -0.94834544    -1.35877291    -0.61007722
F      1.01673964    -0.79122219     0.63015353
F      0.97081070     1.44245002    -0.14687402
F     -0.75167494     0.43304852     1.24516009
F     -1.47803297     1.03832837    -0.62586177
H     -5.16871312     1.52548694     0.85922648
H     -5.47385692     0.60210938    -0.68912895
H     -5.49470449    -0.22464165     0.94672723
H     -3.31747174     1.62326401    -1.49371100
H     -0.94257244     1.19803941    -1.69197289
H      1.10107569     1.91757059    -0.67462636
H      3.47146824     1.65102398    -0.98375535
H      5.48087868     0.46321883    -0.71844577
H      5.22552443    -1.30275044    -1.01630521
H      5.42834516    -0.66740741     0.67454947
H      3.31804579    -2.28519921     0.56822123
H      0.88992305    -2.18567284     0.76041796
H     -1.06341949    -1.21322767     1.88890866
H     -3.50077621    -0.89414097     1.96847939
