42
mv_ip2 conf 6 ff=UFF E=143.587
C      4.94664183    -0.23537349     0.20463580
N      3.48747140    -0.23623659     0.06344475
C      2.74236346    -1.16357697     0.74236765
C      1.35202703    -1.11240388     0.63413845
C      0.70819025    -0.07386063    -0.15818756
C     -0.71543762     0.00623350    -0.28414142
C     -1.33709759     0.51561075    -1.40495778
C     -2.75116560     0.64838829    -1.53195168
N     -3.45940885     0.21351593    -0.46317190
C     -4.94308827     0.32788465    -0.59511315
C     -2.92922767    -0.28171786     0.64577371
C     -1.51227418    -0.42128543     0.82278463
C      1.47521356     0.85297618    -0.81676192
C      2.91967260     0.74538843    -0.67642117
F     -1.67777125    -0.14237705     0.12845993
P     -0.19977389     0.10159416    -0.42423529
F      0.65924972    -0.57981630     0.90286664
F      1.47431679     0.36102566    -0.72383300
F     -0.12836488    -1.51354441    -0.83179348
F      0.11860051     0.03702453     1.22713361
F     -0.24625699     1.73609341    -0.27859840
F     -1.67777125    -0.14237705     0.12845993
P     -0.19977389     0.10159416    -0.42423529
F      0.65924972    -0.57981630     0.90286664
F      1.47431679     0.36102566    -0.72383300
F     -0.12836488    -1.51354441    -0.83179348
F      0.11860051     0.03702453     1.22713361
F     -0.24625699     1.73609341    -0.27859840
H      5.40786652     0.15600838    -0.73476024
H      5.21932735     0.40094755     1.03969204
H      5.29896897    -1.26824826     0.34927487
H      3.16518835    -1.90217120     1.31934680
H      0.74656054    -1.84275182     1.14504352
H     -0.72649747     0.85159287    -2.29304426
H     -3.13457951     1.03903593    -2.39882705
H     -5.43504558    -0.18406389     0.27620169
H     -5.22154810     1.37952317    -0.58728437
H     -5.26211844    -0.17788331    -1.50741211
H     -3.54594267    -0.61894249     1.51216141
H     -1.15414585    -0.78609914     1.69488238
H      1.13349757     1.65555325    -1.38395969
H      3.52458797     1.51195609    -1.20583340
