42
mv_ip2 conf 8 ff=UFF E=164.758
C     -4.98209519    -0.16263208    -0.00133230
N     -3.54372153    -0.08421601     0.06633958
C     -2.89348729    -0.25032525     1.27852387
C     -1.47402899    -0.20692637     1.30122212
C     -0.73149788    -0.02304590     0.10853435
C      0.77236473     0.01593063     0.19572188
C      1.48961407    -0.48672460    -0.95511115
C      2.89432521    -0.40173885    -0.86406117
N      3.54390205     0.12188421     0.32584947
C      4.99675761     0.16057445     0.34443956
C      2.81700078     0.61115174     1.38693970
C      1.39570174     0.55718786     1.33881928
C     -1.43701428     0.11351914    -1.10782478
C     -2.84916728     0.04887673    -1.11042626
F      1.44780359     1.21007693    -0.28445277
P      0.16329857     0.14909872    -0.28023396
F     -1.14487025    -0.75486752     0.40562937
F      0.31772021    -0.17350358     1.41826845
F     -1.30349380    -0.70418962    -0.46917227
F      1.34567505    -1.07738170    -0.60758487
F     -0.82613337     1.35076676    -0.18245395
F      1.44780359     1.21007693    -0.28445277
P      0.16329857     0.14909872    -0.28023396
F     -1.14487025    -0.75486752     0.40562937
F      0.31772021    -0.17350358     1.41826845
F     -1.30349380    -0.70418962    -0.46917227
F      1.34567505    -1.07738170    -0.60758487
F     -0.82613337     1.35076676    -0.18245395
H     -5.43044248     0.49199445     0.75258243
H     -5.34292647    -1.20663812     0.20411067
H     -5.40127681     0.14336714    -0.98409113
H     -3.47143192    -0.37720790     2.15289327
H     -1.04919663    -0.35595789     2.26492206
H      1.10867915    -0.95288746    -1.74686352
H      3.48814924    -0.74821501    -1.67013851
H      5.45926632    -0.58487313    -0.37511520
H      5.35757706    -0.05298922     1.32683072
H      5.32725286     1.19700560     0.02180143
H      3.32247864     0.99923389     2.19556595
H      0.89503330     0.96649949     2.14038691
H     -0.93323771     0.30792202    -1.99834462
H     -3.32857831     0.15923045    -2.08472764
