42
mv_ip2 conf 4 ff=UFF E=141.901
C      4.91488290     0.46958753    -0.63413561
N      3.47119339     0.30753213    -0.38659411
C      2.62916141     1.24610633    -0.86004429
C      1.29352997     1.12327554    -0.60490312
C      0.76935984    -0.00735884     0.05708874
C     -0.71417374    -0.19557775     0.10650795
C     -1.55737900     0.30605636    -0.89950565
C     -2.90719522     0.33173169    -0.75052305
N     -3.52025982    -0.21964424     0.37867752
C     -4.95374335    -0.20162923     0.43254713
C     -2.78281472    -0.79559817     1.35414670
C     -1.40694551    -0.82187994     1.27483865
C      1.71332521    -0.98013634     0.52739488
C      3.06160789    -0.79711729     0.26727495
F     -0.54015686     1.62180088     0.00188406
P      0.21751591     0.12810200    -0.42814801
F     -0.16464659    -0.49011331     1.08103723
F      1.54839681     0.61542551     0.34371380
F     -0.88578034     0.00180034     0.91836828
F      0.88295354    -1.33471552    -0.71853205
F     -1.05828246    -0.54229990    -1.19832331
F     -0.54012842     1.62175271     0.00186139
P      0.21740240     0.12819880    -0.42799491
F     -0.16463349    -0.49010103     1.08099422
F      1.54840241     0.61541721     0.34370171
F     -0.88574241     0.00180559     0.91831702
F      0.88297905    -1.33476444    -0.71854404
F     -1.05827954    -0.54230884    -1.19833538
H      5.21894543     1.51825420    -0.53116326
H      5.58801865    -0.10856055     0.03121981
H      5.16463431     0.15466210    -1.71637665
H      3.00663381     2.02105620    -1.42009374
H      0.63700855     1.86856919    -0.85764416
H     -1.14464608     0.61208202    -1.76769507
H     -3.51656630     0.70879605    -1.49642405
H     -5.34690939    -0.36382220     1.48040037
H     -5.35782008    -1.03560868    -0.22357235
H     -5.37344089     0.72374018     0.08636694
H     -3.21666783    -1.21859678     2.24579586
H     -0.77413422    -1.17755747     2.12599919
H      1.35663850    -1.89095195     1.03722427
H      3.74775631    -1.57741009     0.64366521
