28
bm_1_4_diamino_9_10_anthraquinone conf 0 ff=MMFF E=77.005
N     -2.19175204     2.82030132    -0.02972163
C     -2.11531711     1.42146142    -0.15414757
C     -3.31515338     0.70963129    -0.23676184
C     -3.32224559    -0.68401067    -0.22144204
C     -2.13925253    -1.40503720    -0.03764125
N     -2.19698419    -2.80336080    -0.17705614
C     -0.91952113    -0.69821473     0.06644781
C     -0.90813949     0.70527132     0.01309926
C      0.38837799     1.43299015     0.06452202
O      0.44365207     2.64980739    -0.09564185
C      1.64107884     0.68596739     0.27034527
C      2.85868139     1.37747189     0.34941600
C      4.05199049     0.67878918     0.53884920
C      4.03430863    -0.71000813     0.64905387
C      2.82333361    -1.39940782     0.56970033
C      1.62363867    -0.69856995     0.37852941
C      0.35075227    -1.43584132     0.30200704
O      0.36000707    -2.65290476     0.46940992
H     -1.27991896     3.27172836    -0.17812462
H     -2.93213200     3.25929022    -0.56575814
H     -4.26078842     1.24015854    -0.32289088
H     -4.26756972    -1.20723883    -0.34672880
H     -1.34390400    -3.26159444     0.16866956
H     -3.04078380    -3.23622991     0.18188781
H      2.88203558     2.46266633     0.26381757
H      4.99412645     1.21901229     0.60002183
H      4.96254679    -1.25745287     0.79698012
H      2.81893250    -2.48467568     0.65741772
