34
conf 0 ff=MMFF E=121.104 Rg=4.26 smiles=CC[n+]1ccc(-c2cc[n+](CC)cc2)cc1
C     -5.54978111    -1.10397318    -0.25935788
C     -4.97135215     0.22213023    -0.71000455
N     -3.50159365     0.21740197    -0.49130362
C     -2.99663935     0.65318020     0.68458657
C     -1.61905342     0.65905651     0.90762488
C     -0.73406355     0.21852660    -0.08360044
C      0.72700639     0.21835792     0.13192536
C      1.30062853    -0.39654302     1.25115007
C      2.68380030    -0.38811977     1.43630959
N      3.49456934     0.21670004     0.53940128
C      4.96422581     0.22072221     0.75880122
C      5.57266831    -1.00217128     0.10264495
C      2.97733980     0.82324194    -0.55246905
C      1.59957557     0.83253169    -0.77428386
C     -1.29525159    -0.22244007    -1.28793638
C     -2.67858816    -0.21683273    -1.47196675
H     -6.63288072    -1.11874339    -0.41324589
H     -5.35192976    -1.27951040     0.80293483
H     -5.11228677    -1.93578850    -0.82070106
H     -5.39601771     1.05923494    -0.14595507
H     -5.15578590     0.40098257    -1.77454283
H     -3.70051713     0.99319721     1.44024159
H     -1.24881842     1.02650128     1.86415770
H      0.68039840    -0.90439058     1.98902165
H      3.14959651    -0.86639697     2.29442376
H      5.36812064     1.14707272     0.33692258
H      5.14643940     0.23101148     1.83858661
H      5.37694446    -1.00987885    -0.97441511
H      5.15583599    -1.92316774     0.52269159
H      6.65611166    -1.01604100     0.25418923
H      3.67164335     1.29626375    -1.24258734
H      1.21904104     1.33966137    -1.66031917
H     -0.66470230    -0.59091021    -2.09644502
H     -3.13468381    -0.56227161    -2.39647942
