34
conf 4 ff=MMFF E=121.104 Rg=4.26 smiles=CC[n+]1ccc(-c2cc[n+](CC)cc2)cc1
C     -5.60353247     0.71993647     0.64347790
C     -4.96362145     0.44682106    -0.70267598
N     -3.49859432     0.27339163    -0.52474297
C     -2.68089990     1.34685636    -0.60630336
C     -1.30215150     1.20359874    -0.44490037
C     -0.73950497    -0.05475790    -0.20040888
C      0.71707156    -0.22793223    -0.02844657
C      1.43554070    -1.16480443    -0.78069337
C      2.81215153    -1.31233600    -0.60548868
N      3.47625760    -0.55498370     0.29616471
C      4.94095552    -0.73268541     0.47258556
C      5.67630938     0.19747815    -0.47094815
C      2.81628251     0.35852856     1.04284283
C      1.44039424     0.53789410     0.89357329
C     -1.61861660    -1.14166457    -0.12558380
C     -2.99232935    -0.95768153    -0.28862999
H     -6.68403569     0.85048482     0.53179365
H     -5.19358715     1.62770748     1.09770198
H     -5.42810422    -0.10764158     1.33829148
H     -5.12533189     1.27482955    -1.40087825
H     -5.36068886    -0.46576747    -1.15958145
H     -3.13737635     2.31460792    -0.79906131
H     -0.67420027     2.09015368    -0.52701841
H      0.93685985    -1.78438242    -1.52533393
H      3.38966432    -2.02843865    -1.18492836
H      5.18527737    -0.52065345     1.51880788
H      5.18229377    -1.78203753     0.27293781
H      6.75787525     0.08026701    -0.35482147
H      5.42134345     1.24325246    -0.27150380
H      5.41840763    -0.01436812    -1.51355596
H      3.39583556     0.94129859     1.75457801
H      0.94146714     1.27679367     1.51978776
H     -1.24889300    -2.14665423     0.07528624
H     -3.69251940    -1.78711104    -0.22653798
