34
conf 3 ff=MMFF E=121.104 Rg=4.26 smiles=CC[n+]1ccc(-c2cc[n+](CC)cc2)cc1
C     -5.67260896    -0.05355409    -0.53616528
C     -4.86711850    -1.24583690    -0.06091848
N     -3.42108032    -0.90483542    -0.08800576
C     -2.69548950    -1.14598288    -1.20288917
C     -1.33481130    -0.83893072    -1.24523039
C     -0.69643287    -0.27277623    -0.13539017
C      0.74187306     0.06160670    -0.16071503
C      1.20174693     1.33799940     0.18445967
C      2.56486561     1.63536322     0.15277668
N      3.46634006     0.69449793    -0.20738687
C      4.91306348     1.03230708    -0.23769053
C      5.52514991     0.73884616     1.11709310
C      3.06048367    -0.54972544    -0.54618932
C      1.70566819    -0.88401228    -0.53045353
C     -1.48178915    -0.03709120     0.99927975
C     -2.83910500    -0.36142209     1.00451724
H     -6.74148020    -0.28667945    -0.52295050
H     -5.39550387     0.22738762    -1.55729554
H     -5.50358359     0.81716500     0.10547585
H     -5.13064379    -1.52713737     0.96409938
H     -5.02235830    -2.11874520    -0.70370740
H     -3.21167642    -1.57882364    -2.05627967
H     -0.78566501    -1.03636536    -2.16528853
H      0.50449036     2.12484162     0.47039318
H      2.94223683     2.62074217     0.41486456
H      5.00930648     2.09056254    -0.50239443
H      5.38376274     0.43962236    -1.02915165
H      6.59188539     0.98188946     1.11349142
H      5.04200130     1.32743355     1.90357739
H      5.41523511    -0.31853788     1.37840314
H      3.82518685    -1.27140592    -0.82274347
H      1.41774734    -1.90014320    -0.79808912
H     -1.04590026     0.39029006     1.90171603
H     -3.46579628    -0.18854960     1.87597816
