34
conf 2 ff=MMFF E=121.104 Rg=4.26 smiles=CC[n+]1ccc(-c2cc[n+](CC)cc2)cc1
C      5.68980222    -0.16273162    -0.14949114
C      4.88431051     1.08220074    -0.46180800
N      3.43524982     0.76705796    -0.36718533
C      2.76925835     0.33635745    -1.46196804
C      1.40681227     0.04187078    -1.39459822
C      0.70492833     0.18396032    -0.19169573
C     -0.73637384    -0.12461464    -0.09890984
C     -1.66345705     0.44224209    -0.98151533
C     -3.02184699     0.14009962    -0.87660505
N     -3.46657454    -0.70794903     0.07766376
C     -4.91611017    -1.02221083     0.16783266
C     -5.58774713    -0.02983494     1.09535929
C     -2.60117496    -1.27694666     0.94652781
C     -1.23594721    -0.99644594     0.87584403
C      1.42974608     0.63093619     0.91945699
C      2.79095456     0.91901533     0.81154077
H      5.47375512    -0.52903836     0.85925236
H      6.76088866     0.05069648    -0.21451001
H      5.45749441    -0.96900827    -0.85261162
H      5.08668626     1.44952470    -1.47342163
H      5.10285846     1.89078081     0.24365147
H      3.33419582     0.22533136    -2.38424540
H      0.90675518    -0.31428017    -2.29467977
H     -1.34417359     1.13937211    -1.75554178
H     -3.75876597     0.57551254    -1.54700864
H     -5.01891140    -2.04909717     0.53412661
H     -5.33678989    -0.97774501    -0.84226339
H     -5.47111520     0.99459817     0.72745040
H     -6.65735988    -0.24605622     1.17396903
H     -5.15433835    -0.07355518     2.09968452
H     -3.00895229    -1.95271040     1.69427801
H     -0.56804173    -1.48148711     1.58695695
H      0.94271684     0.77481093     1.88338052
H      3.37126729     1.26934398     1.66158597
