34
conf 1 ff=MMFF E=121.104 Rg=4.26 smiles=CC[n+]1ccc(-c2cc[n+](CC)cc2)cc1
C      5.51832658     1.06294713     0.55540328
C      4.98089901    -0.35238926     0.62020665
N      3.51078349    -0.33062622     0.40495734
C      2.67924713    -0.20819399     1.46380382
C      1.29562678    -0.19264423     1.28249621
C      0.74289067    -0.30046420     0.00082987
C     -0.71839537    -0.28375237    -0.21258741
C     -1.56893163    -1.14942168     0.48527349
C     -2.94723874    -1.11978064     0.26867472
N     -3.48640179    -0.25104953    -0.61575241
C     -4.95615600    -0.23757612    -0.83411714
C     -5.59777177     0.73826548     0.13142374
C     -2.69732920     0.60126064    -1.30751322
C     -1.31428317     0.59890226    -1.12124098
C      1.63652918    -0.42419531    -1.06963976
C      3.01421772    -0.43964759    -0.84769504
H      5.05881171     1.69439230     1.32257020
H      6.60112506     1.06644831     0.71205082
H      5.31119343     1.51888351    -0.41806619
H      5.42774929    -0.98856013    -0.15105334
H      5.17471101    -0.81249797     1.59487501
H      3.12863777    -0.11802985     2.44970166
H      0.65771613    -0.08025175     2.15855947
H     -1.17014352    -1.86988258     1.19868173
H     -3.62459279    -1.78500058     0.79852978
H     -5.33090780    -1.25584770    -0.68606544
H     -5.14225089     0.04521627    -1.87557818
H     -6.68172240     0.76167436    -0.01522020
H     -5.39825048     0.45405236     1.16961018
H     -5.20980220     1.75123454    -0.01618354
H     -3.18038184     1.28379417    -2.00241198
H     -0.71218616     1.30857309    -1.68771850
H      1.27348261    -0.52414385    -2.09201658
H      3.72479819    -0.53714003    -1.66478808
