34
conf 6 ff=MMFF E=121.104 Rg=4.26 smiles=CC[n+]1ccc(-c2cc[n+](CC)cc2)cc1
C     -5.65076933    -0.46089038    -0.46207771
C     -4.97894015     0.56991051     0.42240850
N     -3.50406018     0.43895353     0.29742215
C     -2.84470190     1.14949716    -0.64490074
C     -1.45900505     1.04512640    -0.77324691
C     -0.72619326     0.20062013     0.06913051
C      0.74028778     0.07426671    -0.05191183
C      1.35810177    -1.17532611    -0.18089277
C      2.74538518    -1.27422750    -0.29574107
N      3.51810486    -0.16506076    -0.27976922
C      4.99320518    -0.29176853    -0.40653368
C      5.60501415    -0.43142730     0.97274375
C      2.95790372     1.05900656    -0.15554845
C      1.57402451     1.19880726    -0.04218447
C     -1.44495201    -0.51920562     1.03092299
C     -2.83043098    -0.38513472     1.13090957
H     -6.73891024    -0.37922803    -0.38277798
H     -5.37198444    -0.32135291    -1.51147902
H     -5.36116637    -1.47643202    -0.17355944
H     -5.24424757     0.43100764     1.47576491
H     -5.25508128     1.58955992     0.13376845
H     -3.43301542     1.79349339    -1.29392535
H     -0.96396103     1.62404868    -1.55223747
H      0.76765552    -2.09058922    -0.20760660
H      3.24439554    -2.23463703    -0.39904864
H      5.36722602     0.59747000    -0.92481472
H      5.20662417    -1.16491959    -1.03207359
H      5.21806718    -1.31663567     1.48763315
H      6.69250485    -0.52590276     0.89893849
H      5.37796649     0.44044751     1.59460820
H      3.62328776     1.91875421    -0.14242151
H      1.15999636     2.20050528     0.06841294
H     -0.93557348    -1.18544895     1.72640558
H     -3.40675835    -0.93328778     1.87215708
