34
conf 5 ff=MMFF E=121.104 Rg=4.26 smiles=CC[n+]1ccc(-c2cc[n+](CC)cc2)cc1
C     -5.66824446     0.53745615    -0.03054594
C     -4.95935010    -0.76041250    -0.36105027
N     -3.49104318    -0.56098238    -0.24995310
C     -2.87059920    -0.78602623     0.92987823
C     -1.49152056    -0.61077518     1.05214100
C     -0.72526751    -0.19583611    -0.04352823
C      0.73480314    -0.00232346     0.06570067
C      1.56937269    -1.00639819     0.57080642
C      2.94721732    -0.80557661     0.66427180
N      3.50053312     0.36362382     0.27132102
C      4.96897753     0.56007881     0.38585848
C      5.63732553     0.10556383    -0.89591646
C      2.72668357     1.35763990    -0.21928023
C      1.34545983     1.19305145    -0.33177706
C     -1.40425877     0.02809535    -1.24712068
C     -2.78426826    -0.16179383    -1.33102545
H     -5.43302271     0.86694130     0.98657675
H     -5.36794625     1.33615119    -0.71635175
H     -6.75208791     0.40937056    -0.10726235
H     -5.24622192    -1.56253355     0.32710764
H     -5.18092240    -1.09190812    -1.38098285
H     -3.48466320    -1.10014268     1.77031508
H     -1.02861729    -0.79008039     2.02199649
H      1.16130957    -1.96620199     0.88594283
H      3.61345440    -1.57514361     1.04633451
H      5.32206415    -0.01339861     1.24940198
H      5.15539854     1.62104076     0.58295115
H      5.27112024     0.67656602    -1.75514866
H      6.72071660     0.24298525    -0.82969314
H      5.43720241    -0.95293720    -1.09071809
H      3.21999565     2.27862713    -0.52010803
H      0.75347893     2.01998872    -0.72264825
H     -0.86715332     0.34088165    -2.14195470
H     -3.32992620     0.00440876    -2.25660862
