13
SMD(acetonitrile)-opt r2scan/def2-svp q=1 m=2
C -0.70431112 1.04035171 -0.02842690
C 0.70183487 1.04260909 -0.02830304
C 1.21821649 -0.32035645 -0.01324993
C 0.00197735 -1.25533486 0.02705542
C -1.21696223 -0.32398742 -0.01335276
H -1.88898771 -0.47253566 -0.89043980
H -1.93827707 -0.44995823 0.82545246
H 0.00302862 -1.95790718 -0.82020370
H 0.00282566 -1.86815702 0.94207335
H 1.93995559 -0.44436976 0.82546957
H 1.89058867 -0.46688725 -0.89042512
H 1.32221211 1.94389476 -0.04219549
H -1.32734980 1.93978469 -0.04245456
