29
conf 0 ff=MMFF E=52.833 Rg=3.76 smiles=CNc1ccc2c(c1)C(=O)c1ccccc1C2=O
C     -4.65932317     0.90489117     0.38845795
N     -4.11351388    -0.09145393    -0.51732438
C     -2.75014802    -0.39196738    -0.48252597
C     -2.30574481    -1.54625158    -1.14485543
C     -0.94772198    -1.87319682    -1.21264629
C      0.00055295    -1.02701447    -0.63514023
C     -0.41505281     0.14149892    -0.00529428
C     -1.78118067     0.46229334     0.05656359
C      0.57555992     1.05658118     0.59757868
O      0.21263180     2.08114198     1.16400035
C      2.01100799     0.71931246     0.51374958
C      2.96020048     1.58420824     1.07390939
C      4.31897965     1.27261273     1.00067005
C      4.73312738     0.09975012     0.37009517
C      3.78932648    -0.76378861    -0.18854837
C      2.42522495    -0.45290420    -0.11648062
C      1.43396933    -1.37208779    -0.70998666
O      1.79587656    -2.40744791    -1.25675641
H     -4.44404329     0.65465429     1.43249261
H     -5.74706328     0.93947462     0.26976721
H     -4.27666217     1.90473004     0.16033560
H     -4.69196271    -0.92622998    -0.57942960
H     -3.02437440    -2.20812419    -1.62439289
H     -0.63886936    -2.78214068    -1.72543446
H     -2.07209184     1.39479968     0.53365984
H      2.64478127     2.50169822     1.56797682
H      5.05432468     1.94578031     1.43602174
H      5.79194747    -0.14323295     0.31285623
H      4.12024149    -1.67758680    -0.67931922
