29
conf 1 ff=MMFF E=53.016 Rg=3.84 smiles=CNc1ccc2c(c1)C(=O)c1ccccc1C2=O
C      5.07586288     0.72931935    -0.60241554
N      3.83878562     0.36639289    -1.27080793
C      2.65770405     0.24821881    -0.53509616
C      2.62602622     0.01043027     0.84421922
C      1.41532982    -0.17719028     1.52172848
C      0.20892392    -0.15711371     0.81837791
C      0.22040228     0.04056119    -0.55760809
C      1.43838065     0.22742051    -1.22848752
C     -1.04318508     0.05040918    -1.32163881
O     -1.03674680     0.23833691    -2.53269158
C     -2.31733969    -0.16417574    -0.60617093
C     -3.52200869    -0.16720772    -1.32130598
C     -4.73101995    -0.36763094    -0.65283949
C     -4.74104528    -0.56466802     0.72770990
C     -3.54207536    -0.56175829     1.44258720
C     -2.32758077    -0.36115606     0.77378349
C     -1.06412441    -0.35946140     1.53789778
O     -1.07181154    -0.52333320     2.75238731
H      5.86369624     0.85879936    -1.35143228
H      4.97236553     1.67384201    -0.05822321
H      5.40634182    -0.05806403     0.08233248
H      3.70074032     0.87050748    -2.14453511
H      3.54372574    -0.03897804     1.42370386
H      1.42412467    -0.34915933     2.59660565
H      1.43315745     0.35675855    -2.30979743
H     -3.52236497    -0.01392844    -2.39922272
H     -5.66527738    -0.36994241    -1.21013742
H     -5.68313910    -0.72091280     1.24873010
H     -3.55784816    -0.71631607     2.52018884
