63
conf 4 ff=MMFF E=26.988 Rg=5.68 smiles=Cc1ccc(CN2C(=O)c3ccc4c5c(ccc(c35)C2=O)C(=O)N(CCC[N+](C)(C)C)C4=O)cc1
C      7.57832096    -3.47354697    -0.15220225
C      6.99884809    -2.09412634    -0.04561035
C      6.78088565    -1.51197109     1.20769802
C      6.27825700    -0.21247358     1.30811610
C      5.99794756     0.53463384     0.15618619
C      5.43349599     1.93530235     0.26446493
C      6.22337555    -0.04873267    -1.09784056
C      6.72687381    -1.34795217    -1.19728244
N      3.97483725     1.92384964     0.30582159
C      3.29529199     1.99274115    -0.90756046
O      3.83583615     2.12532845    -2.00174810
C      1.81742844     1.90358658    -0.85504297
C      1.08269620     1.93017474    -2.04816753
C     -0.30714333     1.83580529    -2.01637195
C     -0.96784748     1.71868607    -0.78890275
C     -0.24882951     1.69474416     0.41304081
C     -0.89867187     1.57131066     1.64779395
C     -0.16787553     1.53812405     2.84035068
C      1.22209376     1.63026331     2.80456533
C      1.88745772     1.75299913     1.57757118
C      1.16783524     1.78557464     0.37825365
C      3.36633189     1.83983066     1.55569583
O      3.97033728     1.83830586     2.62428612
C     -2.37606922     1.47785981     1.69483100
O     -2.94117724     1.24383350     2.75869883
N     -3.05817568     1.62125398     0.48693296
C     -4.51847569     1.65463328     0.53651665
C     -5.17755981     0.26993996     0.62595256
C     -5.03478515    -0.52581605    -0.67136557
N     -5.80526612    -1.86565647    -0.66665134
C     -5.33785501    -2.77922605     0.45961969
C     -7.31005466    -1.64970190    -0.56294717
C     -5.51630214    -2.56230957    -2.00241461
C     -2.44418391     1.61101781    -0.76255774
O     -3.06978475     1.45813714    -1.80896629
H      7.24021461    -3.96978993    -1.06795826
H      8.67131142    -3.42067255    -0.16130601
H      7.26029987    -4.09645413     0.69045259
H      7.00485444    -2.06570217     2.11698939
H      6.11218316     0.21605358     2.29544845
H      5.78094580     2.53773963    -0.58396301
H      5.83244914     2.42301860     1.16246218
H      6.01336603     0.50878877    -2.00941635
H      6.90886006    -1.77217511    -2.18235916
H      1.59331418     2.02360781    -3.00685846
H     -0.86545735     1.85987417    -2.95124430
H     -0.67307468     1.44588231     3.80125782
H      1.78583480     1.60575934     3.73732995
H     -4.90329282     2.19596876    -0.33613847
H     -4.81293551     2.23617591     1.41916233
H     -6.23612347     0.43072355     0.85344023
H     -4.74634032    -0.28603608     1.46446727
H     -3.98553459    -0.78437725    -0.84936954
H     -5.41334412     0.04780226    -1.52528569
H     -4.24999721    -2.87428861     0.39921768
H     -5.81517835    -3.75570540     0.33271229
H     -5.63815851    -2.34505521     1.41649458
H     -7.54684882    -1.26032393     0.42999152
H     -7.61337477    -0.94313833    -1.34079698
H     -7.80790238    -2.61368650    -0.70661488
H     -5.85940303    -1.91168063    -2.81223905
H     -4.43849731    -2.73499959    -2.07616059
H     -6.05626366    -3.51373249    -2.02236161
