63
conf 3 ff=MMFF E=26.987 Rg=5.68 smiles=Cc1ccc(CN2C(=O)c3ccc4c5c(ccc(c35)C2=O)C(=O)N(CCC[N+](C)(C)C)C4=O)cc1
C      7.53587425     2.93078208     2.00424843
C      6.97136182     1.73744826     1.29200187
C      6.82814550     1.74511713    -0.09959220
C      6.33946756     0.62017663    -0.76823033
C      5.99918647    -0.53929449    -0.05864715
C      5.45045306    -1.75156784    -0.78076390
C      6.15001492    -0.54639323     1.33448871
C      6.63901888     0.57893189     2.00229846
N      3.99630588    -1.69773316    -0.89060538
C      3.25079045    -2.26320317     0.14053144
O      3.73049237    -2.85718525     1.10183628
C      1.77757014    -2.13436303     0.05223554
C      0.97775355    -2.65232092     1.07988414
C     -0.40876771    -2.52910025     1.01721056
C     -1.00087215    -1.89015350    -0.07733483
C     -0.21627045    -1.37060798    -1.11496295
C     -0.79720616    -0.72316626    -2.21290891
C     -0.00143314    -0.19978836    -3.23768264
C      1.38497560    -0.32292445    -3.17056729
C      1.98181648    -0.96658481    -2.07843121
C      1.19682186    -1.49249336    -1.04669513
C      3.45771074    -1.08065801    -2.01695907
O      4.12020025    -0.63668009    -2.95011147
C     -2.27027939    -0.59257743    -2.29431343
O     -2.77687986     0.08093592    -3.18632228
N     -3.01755004    -1.22334145    -1.30005734
C     -4.47256228    -1.20695731    -1.43677744
C     -5.13513258     0.09555006    -0.96326516
C     -5.06991010     0.26154553     0.55494890
N     -5.84982532     1.48824638     1.08008634
C     -5.63688872     1.54807423     2.59805714
C     -7.34532021     1.35891577     0.81807819
C     -5.33165922     2.78632764     0.47344714
C     -2.47410880    -1.75576011    -0.13408323
O     -3.15808911    -2.05133415     0.84299468
H      8.62670660     2.85716893     2.05115471
H      7.14142118     3.00024465     3.02348818
H      7.26487766     3.85766224     1.48782446
H      7.10012152     2.62750265    -0.67495953
H      6.23171127     0.65355990    -1.85138722
H      5.90167058    -1.81955131    -1.77837181
H      5.75416504    -2.66296168    -0.25107353
H      5.89256288    -1.43373536     1.91086801
H      6.76228554     0.54260343     3.08255545
H      1.43478153    -3.15303979     1.93364355
H     -1.01813074    -2.93819246     1.82192697
H     -0.45300610     0.30042542    -4.09379899
H      1.99962593     0.08516146    -3.97314960
H     -4.90152408    -2.06125827    -0.89935771
H     -4.71357754    -1.35262502    -2.49727905
H     -4.66171221     0.94774121    -1.46122177
H     -6.17833126     0.06531389    -1.29345117
H     -4.03399098     0.40314491     0.88104657
H     -5.48983280    -0.61462482     1.06246892
H     -6.18580101     2.40843804     2.99261720
H     -6.01540640     0.61990838     3.03653795
H     -4.56593594     1.65836810     2.79278568
H     -7.68340839     0.39421793     1.20693094
H     -7.85784412     2.17875369     1.33077900
H     -7.52646776     1.42994620    -0.25697981
H     -4.24913160     2.83040873     0.62313179
H     -5.82254913     3.62366376     0.97881822
H     -5.57848424     2.80389226    -0.59105317
