63
conf 6 ff=MMFF E=27.009 Rg=5.68 smiles=Cc1ccc(CN2C(=O)c3ccc4c5c(ccc(c35)C2=O)C(=O)N(CCC[N+](C)(C)C)C4=O)cc1
C     -7.35712170     3.87919972     0.54784019
C     -6.90589050     2.44895196     0.57311795
C     -6.80692722     1.71550133    -0.61399921
C     -6.36494052     0.39050016    -0.59392035
C     -6.00783109    -0.22397648     0.61377399
C     -5.51065789    -1.65386592     0.63341632
C     -6.08641050     0.52045374     1.79838703
C     -6.52867426     1.84537904     1.77746104
N     -4.06307514    -1.72204692     0.46133847
C     -3.27496935    -1.67915692     1.60845624
O     -3.71433344    -1.64884730     2.75434567
C     -1.80629160    -1.67631658     1.41407157
C     -0.96349939    -1.59815434     2.53105941
C      0.41982801    -1.58348717     2.36435529
C      0.96552835    -1.65149557     1.07809905
C      0.13743430    -1.73411609    -0.04869202
C      0.67192044    -1.79632656    -1.34197736
C     -0.16658996    -1.86826825    -2.45959002
C     -1.54956709    -1.88032073    -2.28916283
C     -2.10020076    -1.81772597    -1.00223143
C     -1.27212656    -1.74347814     0.12294511
C     -3.57269199    -1.82265565    -0.83826986
O     -4.27455789    -1.91911263    -1.84069368
C      2.14083878    -1.78971781    -1.53140725
O      2.61207417    -1.71684261    -2.66212703
N      2.92759193    -1.82344583    -0.38045164
C      4.37370049    -1.94321293    -0.55493021
C      5.08169781    -0.61798450    -0.87458328
C      5.09815948     0.33451352     0.32089056
N      5.92563248     1.61781712     0.08162093
C      7.40316265     1.30529158    -0.12124132
C      5.40006365     2.41273028    -1.10723021
C      5.79216452     2.48713368     1.33841797
C      2.43596135    -1.62852277     0.90741547
O      3.16410313    -1.38475684     1.86666496
H     -6.49587172     4.54075459     0.41322618
H     -7.86564069     4.14492361     1.48059640
H     -8.06659292     4.05073676    -0.26853297
H     -7.07946005     2.16921924    -1.56447991
H     -6.30233745    -0.16069823    -1.53103520
H     -5.79982883    -2.12973335     1.57861717
H     -6.01152389    -2.22688123    -0.15665953
H     -5.80380597     0.07175698     2.74949489
H     -6.58224625     2.40149049     2.71090814
H     -1.38437553    -1.54764569     3.53546158
H      1.06275825    -1.52466853     3.24153285
H      0.24874160    -1.92063221    -3.46549779
H     -2.19768826    -1.93871497    -3.16380407
H      4.55723611    -2.64199093    -1.38075860
H      4.81535307    -2.39625006     0.34081420
H      6.10566723    -0.86332464    -1.17369807
H      4.59743495    -0.14355548    -1.73406367
H      5.52836940    -0.15297470     1.20338631
H      4.08317434     0.67202577     0.55621666
H      7.74364510     0.68342803     0.71150928
H      7.95585984     2.24955966    -0.14430176
H      7.53004838     0.78412217    -1.07301492
H      5.59219895     1.84924700    -2.02370820
H      4.32760029     2.57567844    -0.96773932
H      5.93094827     3.36887240    -1.14510917
H      4.73477126     2.72964314     1.48023006
H      6.17622944     1.92089362     2.19213781
H      6.37583037     3.40108046     1.19272116
