63
conf 5 ff=MMFF E=26.988 Rg=5.69 smiles=Cc1ccc(CN2C(=O)c3ccc4c5c(ccc(c35)C2=O)C(=O)N(CCC[N+](C)(C)C)C4=O)cc1
C      7.30669839    -0.52474166     3.99701448
C      6.82928659    -0.26095708     2.59972123
C      6.63073513     1.05045161     2.15486721
C      6.22479734     1.29992154     0.84174406
C      6.02450760     0.24260524    -0.05578074
C      5.56656612     0.51150188    -1.47351484
C      6.23018215    -1.06960503     0.39081810
C      6.63642897    -1.31816210     1.70408156
N      4.11083635     0.53561714    -1.57231249
C      3.47279593     1.75985487    -1.38865304
O      4.05339198     2.82665339    -1.21077979
C      1.99153309     1.75596498    -1.41993251
C      1.29426639     2.95229492    -1.20561790
C     -0.09905951     2.96283119    -1.22464094
C     -0.80102329     1.77596745    -1.46119345
C     -0.11901325     0.57178881    -1.67790924
C     -0.80981997    -0.62534520    -1.90569057
C     -0.11765970    -1.82293334    -2.11445257
C      1.27563147    -1.82928721    -2.09687820
C      1.98208451    -0.64103334    -1.86656413
C      1.30077703     0.56230215    -1.65512267
C      3.46311207    -0.66753206    -1.84012906
O      4.03408332    -1.73229311    -2.05759841
C     -2.29026252    -0.62650612    -1.91940666
O     -2.90563521    -1.68967380    -1.94644447
N     -2.92580370     0.60905031    -1.83114571
C     -4.37890966     0.64867900    -1.98254321
C     -5.15325445     0.56129576    -0.65876969
C     -5.05203690    -0.82247788    -0.01722251
N     -5.93666718    -0.99124829     1.23887438
C     -5.67381597    -2.39608322     1.79604482
C     -7.41897543    -0.88730040     0.90129264
C     -5.58226304     0.02471172     2.31759191
C     -2.28178986     1.79692662    -1.48618777
O     -2.88514172     2.81872588    -1.17350216
H      6.92066967     0.23026918     4.68997389
H      6.95731978    -1.50001786     4.35220003
H      8.40049689    -0.50829093     4.02804307
H      6.79501770     1.88948916     2.82761862
H      6.07184654     2.32952389     0.52165567
H      5.98361430     1.46559209    -1.81878748
H      5.97625632    -0.25488486    -2.14304992
H      6.08105845    -1.91015589    -0.28524461
H      6.80516142    -2.34487621     2.02165559
H      1.83568652     3.88073183    -1.02302428
H     -0.62907738     3.90038370    -1.05979729
H     -0.65358735    -2.75338193    -2.29696459
H      1.81095150    -2.76439836    -2.26273852
H     -4.69974213    -0.15449522    -2.65680878
H     -4.64120816     1.59321375    -2.47551806
H     -4.78636790     1.32896612     0.03000826
H     -6.19886865     0.79730219    -0.88048467
H     -4.02558145    -1.01875266     0.31049956
H     -5.35991161    -1.60379318    -0.72168655
H     -5.93420898    -3.12744327     1.02512779
H     -4.61409877    -2.47150779     2.05754790
H     -6.29606090    -2.53989472     2.68450338
H     -7.64729806     0.14067654     0.61017244
H     -7.63818451    -1.58094123     0.08460291
H     -7.99556785    -1.15208130     1.79298422
H     -4.50534391    -0.02716026     2.50150281
H     -6.13851939    -0.22752970     3.22560957
H     -5.87103514     1.02149236     1.97478692
