63
conf 1 ff=MMFF E=26.987 Rg=5.68 smiles=Cc1ccc(CN2C(=O)c3ccc4c5c(ccc(c35)C2=O)C(=O)N(CCC[N+](C)(C)C)C4=O)cc1
C      7.61098574     2.51959670     2.32446446
C      7.01909585     1.51773717     1.37793386
C      6.71548791     1.87934878     0.06106332
C      6.20100345     0.93671171    -0.83234664
C      5.99524326    -0.38957032    -0.42952260
C      5.41919410    -1.40685313    -1.39152950
C      6.30670216    -0.75048615     0.88817835
C      6.82099389     0.19281604     1.78095554
N      3.96181839    -1.44230095    -1.32571981
C      3.37904382    -2.32451048    -0.41927606
O      4.00415232    -3.11588210     0.28057726
C      1.90172891    -2.29598052    -0.31032051
C      1.26200568    -3.13583972     0.61091925
C     -0.12612998    -3.11374896     0.73095860
C     -0.88075032    -2.25246771    -0.07284036
C     -0.25669125    -1.40737413    -0.99939858
C     -0.99964162    -0.53294596    -1.80290257
C     -0.36456926     0.31081743    -2.72030812
C      1.02347382     0.28411833    -2.83946453
C      1.78201295    -0.58169063    -2.04006548
C      1.15814083    -1.42915065    -1.11838681
C      3.25768668    -0.58866119    -2.17088007
O      3.77516744     0.14442826    -3.00863522
C     -2.47415094    -0.49430300    -1.67588844
O     -3.11911301     0.38259430    -2.24583849
N     -3.06325288    -1.43905806    -0.83998962
C     -4.52251617    -1.51159193    -0.80319681
C     -5.16781001    -0.66208320     0.30209221
C     -5.04367572     0.83687899     0.02934591
N     -5.80441855     1.71853438     1.04561118
C     -5.31354020     1.48740324     2.46938093
C     -5.53117316     3.18154896     0.67409199
C     -7.30892686     1.48713188     0.97623016
C     -2.35605402    -2.23875729     0.05733115
O     -2.89786355    -2.88199278     0.95098946
H      8.70262660     2.50600973     2.24923876
H      7.25285425     3.52950777     2.09849368
H      7.32410244     2.29743849     3.35770175
H      6.88126483     2.89874692    -0.28071471
H      5.96694203     1.24472005    -1.85027040
H      5.74396222    -1.17140002    -2.41258567
H      5.83100520    -2.39844827    -1.16665032
H      6.15626640    -1.77405913     1.22819897
H      7.06970693    -0.11629317     2.79395197
H      1.84440270    -3.81052044     1.23867928
H     -0.61137170    -3.77407759     1.44901435
H     -0.94157927     0.98726899    -3.34938841
H      1.51403693     0.94161719    -3.55748269
H     -4.80439086    -2.55992586    -0.64349676
H     -4.92921388    -1.22474981    -1.78042194
H     -4.71516028    -0.91335390     1.26659533
H     -6.22301878    -0.94839046     0.35447108
H     -3.99604692     1.15127358     0.08521255
H     -5.44204095     1.08858028    -0.96033900
H     -4.22587847     1.60157371     2.48331470
H     -5.78484047     2.22887894     3.12176414
H     -5.60353129     0.48235066     2.78590316
H     -6.06585619     3.82510836     1.37917166
H     -4.45354707     3.35913524     0.73890806
H     -5.88979336     3.35151619    -0.34545701
H     -7.62934409     1.59816376    -0.06356017
H     -7.53300000     0.48424296     1.34720052
H     -7.80221666     2.23066851     1.60986492
