63
conf 7 ff=MMFF E=27.009 Rg=5.69 smiles=Cc1ccc(CN2C(=O)c3ccc4c5c(ccc(c35)C2=O)C(=O)N(CCC[N+](C)(C)C)C4=O)cc1
C      7.40802819     3.26615067    -2.05049916
C      6.94505329     2.01799666    -1.35939052
C      6.71776440     0.84647711    -2.08941748
C      6.26458997    -0.31022864    -1.45064133
C      6.02451042    -0.31502802    -0.07007590
C      5.51522874    -1.56306858     0.61925080
C      6.23143049     0.86635062     0.65463659
C      6.68478719     2.02260862     0.01509590
N      4.05698305    -1.62031237     0.61897674
C      3.43710871    -2.25210599    -0.45627438
O      4.03332711    -2.81514476    -1.36967970
C      1.95573209    -2.23928060    -0.47907661
C      1.27764105    -2.82851905    -1.55438996
C     -0.11524590    -2.81722778    -1.59364815
C     -0.83609806    -2.21820653    -0.55495446
C     -0.17342980    -1.62543804     0.52745879
C     -0.88287239    -1.01317598     1.56863344
C     -0.20968572    -0.41903148     2.64133396
C      1.18315468    -0.43465244     2.67857908
C      1.90825590    -1.03939628     1.64291789
C      1.24605877    -1.63538980     0.56443712
C      3.38892697    -1.03710466     1.69248117
O      3.94174262    -0.53281369     2.66567554
C     -2.36268690    -0.98734351     1.53169862
O     -2.98782411    -0.30888877     2.34328090
N     -2.98360479    -1.69970250     0.50930574
C     -4.44110435    -1.80581599     0.53035346
C     -5.16387963    -0.71876157    -0.27927995
C     -5.04999712     0.66063034     0.36953755
N     -5.88477166     1.75141042    -0.33921592
C     -5.47583833     1.91401325    -1.79791087
C     -5.61475690     3.07552671     0.38656055
C     -7.37834249     1.46204544    -0.25285966
C     -2.31646785    -2.21580188    -0.60125682
O     -2.89839072    -2.62005934    -1.60318727
H      8.04561703     3.02419545    -2.90727140
H      7.99854371     3.89210029    -1.37331956
H      6.54565268     3.84094265    -2.40168841
H      6.89790788     0.82398922    -3.16207762
H      6.10092159    -1.21090736    -2.04047997
H      5.89250376    -1.59322398     1.64892481
H      5.92735210    -2.45009846     0.12251059
H      6.04136863     0.89427380     1.72650376
H      6.83914624     2.92653745     0.60035895
H      1.83369739    -3.29874135    -2.36566365
H     -0.63031634    -3.28183429    -2.43384033
H     -0.76031229     0.05257992     3.45414399
H      1.70358486     0.02713934     3.51787063
H     -4.79502378    -1.79614013     1.56827631
H     -4.71410836    -2.78479982     0.11679745
H     -6.21524823    -1.01497451    -0.35041942
H     -4.76363631    -0.69566117    -1.29790180
H     -5.39360460     0.63302958     1.41009055
H     -4.01308336     1.01229516     0.34307307
H     -4.39307746     2.06284540    -1.83927213
H     -5.76681699     1.01689174    -2.35009794
H     -5.99798267     2.78392772    -2.20797386
H     -5.91436496     2.96307278     1.43276185
H     -6.20170450     3.86271087    -0.09617527
H     -4.54617001     3.29839658     0.31284057
H     -7.92102681     2.32849935    -0.64329388
H     -7.60706770     0.58324678    -0.86035489
H     -7.63807840     1.28899541     0.79538292
