63
conf 2 ff=MMFF E=26.987 Rg=5.68 smiles=Cc1ccc(CN2C(=O)c3ccc4c5c(ccc(c35)C2=O)C(=O)N(CCC[N+](C)(C)C)C4=O)cc1
C      7.29202815    -3.71384014    -1.56680736
C      6.79466897    -2.57859637    -0.72191870
C      6.36299150    -2.80661374     0.58909119
C      5.93694391    -1.74439430     1.39008171
C      5.94955032    -0.43173727     0.89975897
C      5.46980601     0.71739489     1.76084352
C      6.38876871    -0.20557210    -0.41154448
C      6.81451145    -1.26839691    -1.21189832
N      4.03952598     0.95320816     1.59291045
C      3.16973956     0.26356226     2.43354609
O      3.52435311    -0.47919265     3.34436523
C      1.71915904     0.45574120     2.20194620
C      0.79665471    -0.24187476     2.99337817
C     -0.57093467    -0.08062573     2.78063980
C     -1.02091632     0.78384506     1.77710455
C     -0.11231768     1.49203692     0.98015424
C     -0.55069108     2.35587037    -0.03165400
C      0.36756086     3.04923504    -0.82752925
C      1.73454088     2.88297563    -0.61408226
C      2.18946552     2.02178349     0.39323365
C      1.28104071     1.32188482     1.19460921
C      3.64612325     1.84833955     0.60118826
O      4.42011981     2.49645490    -0.09715093
C     -2.00193557     2.54188325    -0.26177887
O     -2.39023306     3.19710259    -1.22398850
N     -2.87007950     1.90810446     0.62674491
C     -4.29869528     2.18238215     0.48561024
C     -4.99143776     1.36437401    -0.61472537
C     -5.10058007    -0.11731875    -0.25504925
N     -5.91564741    -0.94573065    -1.27401594
C     -5.87927635    -2.40643996    -0.80690856
C     -5.30903934    -0.87525539    -2.66998995
C     -7.37261700    -0.50212004    -1.32320248
C     -2.47514886     0.94477346     1.55105823
O     -3.27316833     0.20491063     2.12161825
H      6.77460291    -4.64509106    -1.31326866
H      7.10874635    -3.51982303    -2.62887602
H      8.36650883    -3.85238866    -1.41248621
H      6.35899273    -3.81448363     0.99854923
H      5.59986581    -1.94889931     2.40515451
H      6.03356488     1.62424016     1.50941060
H      5.69501998     0.50612156     2.81350959
H      6.40852155     0.80438803    -0.81839892
H      7.16597630    -1.06452664    -2.22109607
H      1.14284715    -0.91462990     3.77826995
H     -1.27651081    -0.62768353     3.40446633
H      0.02703379     3.72427091    -1.61204560
H      2.44510767     3.42738019    -1.23632698
H     -4.80106343     2.01720895     1.44633040
H     -4.41622600     3.24783471     0.25118042
H     -5.98950013     1.79162949    -0.75446251
H     -4.45001528     1.48940877    -1.55785987
H     -5.59126948    -0.24875092     0.71630238
H     -4.10745288    -0.57778921    -0.22076380
H     -6.45602768    -3.01173846    -1.51272359
H     -6.32130857    -2.46037496     0.19242965
H     -4.83644347    -2.73677366    -0.78612517
H     -5.84059438    -1.58289043    -3.31359507
H     -5.43119051     0.13865640    -3.05921371
H     -4.25033992    -1.14117556    -2.60113084
H     -7.76968797    -0.50171595    -0.30410406
H     -7.92740526    -1.20756464    -1.94950113
H     -7.42658634     0.49700633    -1.76193927
