63
conf 0 ff=MMFF E=26.987 Rg=5.69 smiles=Cc1ccc(CN2C(=O)c3ccc4c5c(ccc(c35)C2=O)C(=O)N(CCC[N+](C)(C)C)C4=O)cc1
C      7.53152516     3.50686737     0.13441088
C      6.97165848     2.11722681     0.06075347
C      6.76736929     1.49978491    -1.17782997
C      6.28346208     0.19115321    -1.24646195
C      6.00932768    -0.53003955    -0.07671200
C      5.46665097    -1.94144833    -0.15085021
C      6.22111164     0.08872594     1.16259895
C      6.70518851     1.39735361     1.23030958
N      4.00818574    -1.95401256    -0.19825664
C      3.40389739    -1.91311835    -1.45233170
O      4.01255000    -1.92923912    -2.51820235
C      1.92383850    -1.85258663    -1.48240074
C      1.26190926    -1.77438402    -2.71488905
C     -0.12931911    -1.70822778    -2.75869862
C     -0.86474389    -1.72268844    -1.56861817
C     -0.21834325    -1.80136064    -0.32840931
C     -0.94220410    -1.80610273     0.87085336
C     -0.28506481    -1.87884660     2.10363519
C      1.10606483    -1.94789932     2.14346781
C      1.84556771    -1.93991996     0.95303563
C      1.19953269    -1.86602137    -0.28553594
C      3.32448826    -2.00228678     1.01378783
O      3.86231315    -2.09684374     2.11325839
C     -2.42008880    -1.72580760     0.83566747
O     -3.05308529    -1.55598331     1.87501418
N     -3.02816331    -1.78115880    -0.41552873
C     -4.48734838    -1.84324701    -0.47004791
C     -5.17182364    -0.47416736    -0.59961156
C     -5.04924794     0.35924213     0.67595105
N     -5.84613563     1.68286300     0.63236404
C     -5.57184728     2.42353768     1.94737094
C     -7.34626968     1.43385767     0.53504423
C     -5.39657737     2.57259743    -0.51994018
C     -2.34337627    -1.65762155    -1.62409083
O     -2.90789678    -1.46267625    -2.69611763
H      7.22280364     4.09898890    -0.73353356
H      8.62472513     3.46867976     0.16614624
H      7.16895329     4.02695134     1.02733228
H      6.98758377     2.03270927    -2.10035780
H      6.12754505    -0.26493665    -2.22299047
H      5.81967798    -2.51630919     0.71423813
H      5.87699051    -2.44607431    -1.03424890
H      6.01571065    -0.44823164     2.08742716
H      6.87663485     1.84968895     2.20471602
H      1.82932188    -1.76473775    -3.64570329
H     -0.63183127    -1.65097705    -3.72373877
H     -0.84707491    -1.88802444     3.03654765
H      1.61391725    -2.00716633     3.10632033
H     -4.76690642    -2.45381237    -1.33781387
H     -4.86593083    -2.36797542     0.41538514
H     -4.74739457     0.06681787    -1.45135814
H     -6.22625088    -0.66084429    -0.82661267
H     -4.00586893     0.64329964     0.84959716
H     -5.41914846    -0.19814420     1.54429250
H     -5.90094163     1.78930742     2.77586502
H     -4.49788489     2.62098779     2.01531024
H     -6.13175306     3.36355169     1.94037034
H     -7.57453739     1.00994434    -0.44569293
H     -7.86338839     2.39156147     0.64937867
H     -7.63611425     0.74527877     1.33380635
H     -5.89230010     3.54310732    -0.42052744
H     -4.31062973     2.68987989    -0.46336361
H     -5.68901407     2.10563020    -1.46378127
