63
conf 9 ff=MMFF E=27.127 Rg=5.94 smiles=Cc1ccc(CN2C(=O)c3ccc4c5c(ccc(c35)C2=O)C(=O)N(CCC[N+](C)(C)C)C4=O)cc1
C     -9.04125168    -0.51583309     2.20832794
C     -8.01702283    -0.39552144     1.11899880
C     -7.64424474     0.86174805     0.63200769
C     -6.71777388     0.97320743    -0.40742459
C     -6.15856901    -0.17203859    -0.98976726
C     -5.13709237    -0.05107818    -2.09998228
C     -6.53893557    -1.43035076    -0.50461200
C     -7.46548923    -1.54073879     0.53488191
N     -3.77997636     0.03354044    -1.57036625
C     -3.08385463    -1.15830212    -1.38761133
O     -3.50163972    -2.26555060    -1.71383076
C     -1.73917976    -1.06247689    -0.77315081
C     -1.00715549    -2.23269795    -0.53069113
C      0.25956247    -2.15908458     0.04524457
C      0.79766808    -0.91298985     0.38381433
C      0.07912203     0.26623109     0.14843589
C      0.61188579     1.52041986     0.47303102
C     -0.11030146     2.69149782     0.21928472
C     -1.37588002     2.61417981    -0.35889283
C     -1.92419493     1.36720738    -0.68699853
C     -1.21009198     0.18939118    -0.44180905
C     -3.27176612     1.30143757    -1.29935689
O     -3.85612725     2.35208478    -1.54715934
C      1.95288625     1.61055265     1.09547132
O      2.47722578     2.70708707     1.26456247
N      2.58027112     0.40903118     1.42339901
C      3.84251488     0.48478107     2.15616013
C      5.06895400     0.76180445     1.27382846
C      5.42473628    -0.42886196     0.38382107
N      6.73984132    -0.24274286    -0.40665350
C      6.68628334     0.98474350    -1.30753608
C      6.91858747    -1.48245586    -1.29229377
C      7.94521891    -0.14799538     0.52084831
C      2.14548323    -0.84129634     0.99230708
O      2.85189680    -1.84520508     1.04603787
H     -8.86289304    -1.40987333     2.81487256
H     -8.99865159     0.34657352     2.88167893
H    -10.04376592    -0.57669023     1.77410928
H     -8.07448889     1.76536672     1.05845249
H     -6.43807549     1.96373298    -0.76280900
H     -5.36075240     0.83310167    -2.70944343
H     -5.22561586    -0.91099447    -2.77528898
H     -6.11803474    -2.33681574    -0.93674335
H     -7.75511086    -2.52914360     0.88495556
H     -1.42514860    -3.20628349    -0.78744307
H      0.81505345    -3.07698117     0.23277466
H      0.30200212     3.66700298     0.47528573
H     -1.93601234     3.52985757    -0.54914588
H      3.75648133     1.29309933     2.89319210
H      3.99263820    -0.44084851     2.72482268
H      4.88659468     1.65264778     0.66435277
H      5.90295157     0.99248981     1.94417541
H      5.54683334    -1.34046956     0.98005157
H      4.64432454    -0.59262835    -0.36691852
H      5.78417570     0.92339091    -1.92300613
H      7.58062829     0.98948528    -1.93817454
H      6.67158754     1.88223478    -0.68400008
H      6.06445909    -1.54697425    -1.97300088
H      6.96508135    -2.36421306    -0.64635372
H      7.84871590    -1.37431832    -1.85825103
H      7.93012550    -1.00655544     1.19821464
H      7.89241057     0.78921104     1.07988048
H      8.85289586    -0.15912981    -0.09040331
