63
conf 8 ff=MMFF E=27.127 Rg=5.94 smiles=Cc1ccc(CN2C(=O)c3ccc4c5c(ccc(c35)C2=O)C(=O)N(CCC[N+](C)(C)C)C4=O)cc1
C      9.07229914     1.69926254    -1.17668567
C      8.02978093     0.96138734    -0.39001821
C      7.66536068    -0.34210261    -0.74385440
C      6.72121573    -1.04355593     0.00964789
C      6.13542445    -0.45952973     1.14073570
C      5.09514475    -1.21037642     1.94372583
C      6.50740268     0.84369732     1.49689830
C      7.45171570     1.54428213     0.74275478
N      3.74939785    -0.96754274     1.43442156
C      3.04056804     0.10383821     1.97126733
O      3.43715012     0.80775792     2.89555135
C      1.70885140     0.38727716     1.38727504
C      0.96555354     1.47627932     1.86224636
C     -0.28936928     1.75489126     1.32442611
C     -0.80436073     0.94554695     0.30625747
C     -0.07424779    -0.14654700    -0.18007694
C     -0.58403955    -0.97073630    -1.19149073
C      0.14936069    -2.06689763    -1.65832883
C      1.40330563    -2.34346628    -1.11699160
C      1.92855165    -1.52737645    -0.10636433
C      1.20296786    -0.43078844     0.37151604
C      3.26376875    -1.83369859     0.45809086
O      3.85801716    -2.82884762     0.05388292
C     -1.91246246    -0.67867487    -1.77777336
O     -2.41873888    -1.46682665    -2.57050681
N     -2.55030632     0.48567878    -1.35096811
C     -3.79860167     0.85384185    -2.01590241
C     -5.03602394     0.10956293    -1.49212105
C     -5.42312550     0.54867878    -0.08007138
N     -6.74763661    -0.07001590     0.42185325
C     -6.95907409     0.41266163     1.86245795
C     -6.68966115    -1.59245412     0.43140408
C     -7.93666630     0.39429486    -0.41049860
C     -2.14002318     1.24449086    -0.25823416
O     -2.85878839     2.08819088     0.27217084
H     10.06613129     1.49016930    -0.76914033
H      8.89542666     2.77944056    -1.14264993
H      9.05113323     1.40024086    -2.22994565
H      8.11599203    -0.82226536    -1.60986800
H      6.44858058    -2.05385435    -0.29165859
H      5.15925792    -0.91201518     2.99740912
H      5.31946546    -2.28394288     1.92187856
H      6.06594670     1.32287479     2.36936115
H      7.73424328     2.54970610     1.04746775
H      1.36556020     2.11309257     2.65152876
H     -0.85374907     2.60753715     1.69956285
H     -0.24504851    -2.70583557    -2.44781482
H      1.97245212    -3.19569793    -1.48878527
H     -3.68877528     0.63334464    -3.08516083
H     -3.95183155     1.93673776    -1.93504086
H     -5.85530342     0.31657906    -2.18788866
H     -4.85198791    -0.96919626    -1.51935444
H     -5.54909016     1.63637542    -0.02922422
H     -4.65711961     0.24182845     0.64008495
H     -6.11699553     0.06745475     2.46972773
H     -7.00834246     1.50560707     1.85657904
H     -7.89642260    -0.00982374     2.23675818
H     -7.59319916    -1.96937116     0.92036893
H     -5.79797846    -1.90137018     0.98433327
H     -6.65242981    -1.95258333    -0.59978319
H     -7.92386708     1.48704525    -0.45425259
H     -7.86079603    -0.03586665    -1.41188848
H     -8.85396376     0.04160544     0.07103854
