18
bm_2_3_dichloro_1_4_naphthoquinone conf 0 ff=MMFF E=47.522
O     -1.42277693    -2.52134444    -0.31606904
C     -1.31961280    -1.30811896    -0.17443894
C     -2.50107311    -0.40929779    -0.09215195
Cl    -4.04592691    -1.18799587    -0.20963689
C     -2.36510255     0.91309902     0.06263987
Cl    -3.71896601     1.99190030     0.16258039
C     -1.02564204     1.55092486     0.16022618
O     -0.87976952     2.75972915     0.30211139
C      0.16003395     0.67811741     0.08100794
C      1.44071249     1.24281522     0.16909094
C      2.57240494     0.42941741     0.09572945
C      2.43083822    -0.94740350    -0.06543354
C      1.15747853    -1.51180710    -0.15334970
C      0.01868141    -0.69662164    -0.07991082
H      1.56319552     2.31799026     0.29517316
H      3.56461094     0.87092457     0.16446468
H      3.31230494    -1.58289932    -0.12276798
H      1.05860895    -2.58942958    -0.27926515
