25
bm_n_isopropylphthalimide conf 0 ff=MMFF E=-2.320
C     -2.74156659     1.20150139    -0.88227599
C     -2.25089664     0.15879639     0.12155761
C     -2.87251357    -1.20909750    -0.15796198
N     -0.79183186     0.08944305     0.15452315
C      0.00778618    -0.27052453    -0.89893082
O     -0.29614609    -0.59422636    -2.03119746
C      1.38694834    -0.20194059    -0.42133880
C      2.57529602    -0.46302713    -1.07542894
C      3.75601114    -0.30684940    -0.34219208
C      3.72039816     0.10071111     1.00778142
C      2.50348640     0.35886680     1.64695278
C      1.35223823     0.19724493     0.90092441
C     -0.04912347     0.38382033     1.26852171
O     -0.41773152     0.73571136     2.37302238
H     -2.48246060     0.93113871    -1.91102999
H     -3.83012841     1.30816547    -0.82826487
H     -2.29486280     2.17965917    -0.67344481
H     -2.58956279     0.47590963     1.11571930
H     -2.51919343    -1.95001519     0.56740199
H     -3.96418642    -1.15970018    -0.08674515
H     -2.61865608    -1.57609654    -1.15767939
H      2.58718466    -0.77588581    -2.11451225
H      4.71580148    -0.50187541    -0.81774503
H      4.65315518     0.21522813     1.55753903
H      2.46055446     0.67304215     2.68480380
