28
methyl_viologen/neu q=0 m=1 E=-15649.746456eV conf=0 model=uma-s-1p2p1
C       -4.95732373       0.32143771      -0.16350405       0.00155659      -0.00150803      -0.00307223
N       -3.51764561       0.40514910      -0.26606674      -0.00697606      -0.00388294      -0.01291990
C       -2.83135064      -0.49110330      -1.06676669       0.00072766       0.00323190       0.00077664
C       -1.50504396      -0.66747275      -0.98890592       0.01591077       0.00314255      -0.00907409
C       -0.67721651       0.06355598      -0.03164655       0.00871854       0.00069215      -0.00914569
C        0.67740172      -0.05633442       0.03972474      -0.00958494      -0.00792813      -0.00347591
C        1.51051736       0.69173767       0.97920161      -0.01696075       0.00165414       0.00280912
C        2.83713442       0.51325246       1.05294428      -0.00061354       0.01384187       0.00403306
N        3.51771909      -0.40244881       0.26879143       0.00638528      -0.01282319      -0.00496900
C        4.95715568      -0.32793834       0.15630506      -0.00153851      -0.00338771      -0.00041861
C        2.78573902      -1.07323003      -0.69536349      -0.00828089      -0.00017879       0.00571735
C        1.45813160      -0.94092826      -0.82284878      -0.00847838      -0.00988031       0.00687622
C       -1.46330033       0.92858384       0.84592948       0.01117050      -0.00271015       0.00295582
C       -2.79135004       1.05715468       0.71575949       0.00865128       0.00277535       0.01387492
H       -5.35888319       1.27934080       0.16640928      -0.00166032       0.00996408      -0.00689821
H       -5.28411411      -0.45596533       0.53650547       0.00284385      -0.01103497      -0.00063387
H       -5.37734526       0.10078374      -1.14429444       0.00825533      -0.00481478      -0.00956760
H       -3.43795216      -1.02821666      -1.78407532       0.01171979       0.01077718      -0.00334059
H       -1.06118130      -1.37008826      -1.67769889       0.00089689       0.00870457       0.00290696
H        1.07307530       1.41911363       1.64684134       0.00883949       0.00880818       0.00404689
H        3.45124841       1.06971436       1.74831856      -0.00700924       0.01147769      -0.00891456
H        5.39244722      -0.12403567       1.13436652       0.00159309      -0.00757672       0.00940699
H        5.34277445      -1.28628747      -0.19001888      -0.00871862      -0.00906730      -0.00491902
H        5.28416663       0.45039276      -0.54256190      -0.00313801       0.00025396      -0.01103728
H        3.35732688      -1.73697915      -1.33076416      -0.01018448      -0.00249854       0.00916432
H        0.97660267      -1.52981674      -1.58863816      -0.00249841       0.00340904       0.00668217
H       -0.98816052       1.49359219       1.63408015      -0.00706956       0.00649650       0.00856135
H       -3.37057220       1.69703636       1.36797696       0.00544283      -0.00793769       0.01057489
