12
bm_1_4_benzoquinone conf 0 ff=MMFF E=-1.111
O      0.78211567    -2.54087447    -0.00351560
C      0.42225391    -1.37178495    -0.00189800
C     -1.00841054    -1.00951687    -0.04374515
C     -1.40158747     0.26780527    -0.04197780
C     -0.42225398     1.37178504     0.00189807
O     -0.78211556     2.54087462     0.00351556
C      1.00841045     1.00951688     0.04374512
C      1.40158728    -0.26780523     0.04197789
H     -1.71376230    -1.83109141    -0.07564422
H     -2.44687744     0.55059449    -0.07234913
H      1.71376273     1.83109096     0.07564407
H      2.44687725    -0.55059431     0.07234920
