13
SMD(acetonitrile)-opt r2scan/def2-svp q=0 m=1
C 2.00806523 0.35266988 -0.07398000
C 1.80031177 -0.99715159 -0.02310008
C 0.37788727 -1.18137444 0.04786950
C -0.16927804 0.07538694 0.03222964
C -1.58061962 0.56215424 0.08660539
H -1.80303227 0.97100706 1.08907991
H -1.70098050 1.40647069 -0.62390728
O -2.49794011 -0.48019456 -0.13915140
H -2.34150407 -0.80646369 -1.04001650
O 0.81451895 1.01071689 -0.04440342
H -0.17342880 -2.11911013 0.10637462
H 2.56873989 -1.77032478 -0.03560401
H 2.89621945 0.97980732 -0.13437542
