52
Properties=species:S:1:pos:R:3 SMD(acetonitrile)-opt=T r2scan/def2-svp=T q=2 m=1 pbc="F F F"
C        4.94253781       0.37142553      -0.53172543
N        3.48712969       0.27772117      -0.34820752
C        2.68934242       1.25714179      -0.82865659
C        1.31362815       1.17479175      -0.70865651
C        0.73401861       0.06442844      -0.07179670
C       -0.73125275      -0.04621121       0.08114631
C       -1.60294185       0.49619053      -0.87796327
C       -2.97084251       0.37649511      -0.71094260
N       -3.48410280      -0.24974261       0.37123805
C       -4.94080900      -0.39765927       0.50127672
C       -2.67219453      -0.77924002       1.31310359
C       -1.29667776      -0.69532835       1.19164540
C        1.59076209      -0.93646146       0.41682505
C        2.95919976      -0.80685420       0.26145574
H        5.23258570       1.42779082      -0.53765107
H        5.43956102      -0.15599898       0.28973425
H        5.20736626      -0.09521500      -1.49141418
H        3.18989795       2.10308213      -1.30317532
H        0.70999032       1.99909180      -1.09303285
H       -1.23147742       0.99763643      -1.77329546
H       -3.68966224       0.77230115      -1.43060680
H       -5.20213337      -0.42773579       1.56466804
H       -5.24441974      -1.33555350       0.01441705
H       -5.42984551       0.45207906       0.01251198
H       -3.16115249      -1.26358995       2.16022925
H       -0.67987362      -1.11907386       1.98612245
H        1.20671403      -1.83455846       0.90412203
H        3.66714484      -1.55845103       0.61531612
C        3.36389813      -3.78036784      -4.52129418
C        3.39486620      -2.76143024      -3.47344915
N        3.41939902      -1.95269031      -2.64182414
H        4.37800494      -4.05612082      -4.82545072
H        2.85692625      -4.68399705      -4.16996962
H        2.83203241      -3.41383646      -5.40431584
C        3.61036125       4.33581018       3.82487914
C        3.57939374       3.31683925       2.77706650
N        3.55486036       2.50813265       1.94540910
H        2.59620685       4.61438047       4.12629742
H        4.13881191       3.96791434       4.70940597
H        4.12079630       5.23795575       3.47481760
C       -3.60733436      -4.30783162      -3.80184861
C       -3.57636629      -3.28889402      -2.75400358
N       -3.55183347      -2.48015409      -1.92237857
H       -2.59322755      -4.58358460      -4.10600515
H       -4.11430624      -5.21146083      -3.45052405
H       -4.13920008      -3.94130024      -4.68487027
C       -3.36087124       3.80834640       4.54432471
C       -3.39183875       2.78937547       3.49651207
N       -3.41637213       1.98066887       2.66485467
H       -4.37502564       4.08691669       4.84574299
H       -2.83242058       3.44045056       5.42885154
H       -2.85043619       4.71049197       4.19426317
