20
bm_5_8_dihydroxy_1_4_naphthoquinone_naphthazarin conf 0 ff=MMFF E=15.897
O      0.10631570    -2.94613139     0.34807642
C      0.56490678    -1.80924188     0.37792822
C      1.95409948    -1.57193096     0.80918089
C      2.47125493    -0.34248657     0.84843932
C      1.67871820     0.83864518     0.46247789
O      2.17052908     1.96116382     0.50477003
C      0.28445636     0.63786902     0.02567431
C     -0.50537891     1.73349861    -0.35031533
O     -0.05159360     3.02486244    -0.33846529
C     -1.82271002     1.54764097    -0.76342657
C     -2.36303364     0.26312009    -0.80444063
C     -1.58360891    -0.82979799    -0.43216122
O     -2.18869477    -2.05570934    -0.50068786
C     -0.25714233    -0.64968461    -0.01543809
H      2.52987834    -2.44620433     1.09129921
H      3.49202101    -0.15888211     1.16433754
H      0.88330452     3.02885741    -0.03169013
H     -2.42784415     2.40344889    -1.05323524
H     -3.39097407     0.11378348    -1.12634202
H     -1.54450399    -2.74282074    -0.21598146
