22
conf 2 ff=MMFF E=52.469 Rg=3.09 smiles=COC1=CC(=O)c2ccccc2C1=O
C     -3.54511615    -1.25397299    -0.29446202
O     -2.96143766    -0.18875176    -1.03820948
C     -1.66375887     0.16007602    -0.68736098
C     -1.31521231     1.44444165    -0.81039254
C      0.02613383     1.95400846    -0.48795500
O      0.28352617     3.14422200    -0.61260143
C      1.02975153     0.98974495    -0.01156148
C      2.31710472     1.43661356     0.31506498
C      3.27684371     0.52991396     0.76665726
C      2.95453387    -0.82061194     0.89208766
C      1.67185073    -1.26613456     0.56640704
C      0.70367082    -0.35837289     0.11318300
C     -0.65008876    -0.84672543    -0.22884874
O     -0.90055157    -2.04305666    -0.13417660
H     -4.63170318    -1.17289235    -0.39664980
H     -3.30455590    -1.18803724     0.77201360
H     -3.24916892    -2.22049756    -0.71164440
H     -2.02733554     2.18470207    -1.15848174
H      2.57518382     2.49005290     0.21799340
H      4.27625225     0.87753298     1.01950759
H      3.70242396    -1.52867032     1.24282483
H      1.43165347    -2.32358486     0.66660484
