22
conf 1 ff=MMFF E=52.469 Rg=3.09 smiles=COC1=CC(=O)c2ccccc2C1=O
C      3.70736542     0.04689479    -0.63463212
O      3.08830984    -0.48475073     0.53269813
C      1.70329713    -0.39531898     0.58256262
C      1.13823942    -0.23080724     1.78250530
C     -0.31486180    -0.13280576     1.98677562
O     -0.77345939     0.02672645     3.11044613
C     -1.18180022    -0.22781657     0.80212579
C     -2.57151522    -0.12999300     0.95304694
C     -3.40280968    -0.22010369    -0.16407859
C     -2.85017394    -0.40810549    -1.43008937
C     -1.46539632    -0.50587506    -1.58064267
C     -0.62589167    -0.41479183    -0.46093251
C      0.83889308    -0.52160941    -0.63738246
O      1.29823073    -0.71234556    -1.75788787
H      4.75322224     0.25568888    -0.38911602
H      3.24460532     0.98800533    -0.95046451
H      3.70248306    -0.69112050    -1.44154230
H      1.74425639    -0.15661520     2.67889281
H     -3.00913104     0.01564056     1.93947755
H     -4.48167731    -0.14462352    -0.04602242
H     -3.49743187    -0.47984046    -2.30164761
H     -1.04475414    -0.65438138    -2.57409243
