22
conf 6 ff=MMFF E=53.650 Rg=3.18 smiles=COC1=CC(=O)c2ccccc2C1=O
C      3.99765067     0.05320583     0.51801930
O      2.81995323     0.83325330     0.67451838
C      1.60774599     0.28202667     0.30520809
C      1.43341318    -0.94852826    -0.19884289
C      0.11348963    -1.48488956    -0.57596186
O      0.01914375    -2.61753768    -1.03154338
C     -1.06359392    -0.62444508    -0.38789566
C     -2.33419634    -1.10190585    -0.73570024
C     -3.45613933    -0.29078566    -0.55997770
C     -3.31197326     0.99419992    -0.03842701
C     -2.04564272     1.46951932     0.30799909
C     -0.91628683     0.65742726     0.13283451
C      0.41690505     1.17239547     0.50325282
O      0.52947288     2.30506305     0.96114643
H      4.84678541     0.65222816     0.86010362
H      4.16415519    -0.19739953    -0.53459345
H      3.95302687    -0.85087692     1.13378080
H      2.25003671    -1.63935891    -0.36608767
H     -2.45324188    -2.10445154    -1.14344470
H     -4.44262953    -0.66151395    -0.83002336
H     -4.18560960     1.62780761     0.09918898
H     -1.94246514     2.47456633     0.71471528
