22
conf 8 ff=MMFF E=53.650 Rg=3.18 smiles=COC1=CC(=O)c2ccccc2C1=O
C      3.89099911     0.22028789     1.03590099
O      2.63209099    -0.29416308     1.44872933
C      1.52796390    -0.05865555     0.65178182
C      1.53212829     0.62566482    -0.50165364
C      0.32085267     0.84602101    -1.31181096
O      0.38916723     1.48001269    -2.35715027
C     -0.94883601     0.28618448    -0.82628712
C     -2.12035544     0.47637822    -1.57109304
C     -3.32929011    -0.05213417    -1.11644800
C     -3.37057823    -0.76909194     0.07864771
C     -2.20292159    -0.95834424     0.82046576
C     -0.98662004    -0.42881861     0.36677578
C      0.24062893    -0.63628633     1.16089172
O      0.19009132    -1.26919154     2.21072573
H      4.63429718    -0.06499639     1.78623402
H      3.86855620     1.31350963     0.98225192
H      4.19573405    -0.21291250     0.07778171
H      2.42628297     1.06712234    -0.92319409
H     -2.09454664     1.03533852    -2.50512875
H     -4.23884869     0.09554981    -1.69473831
H     -4.31223696    -1.18176621     0.43447854
H     -2.24455912    -1.51970883     1.75283916
