22
conf 4 ff=MMFF E=52.469 Rg=3.09 smiles=COC1=CC(=O)c2ccccc2C1=O
C      3.69148205     0.64006631     0.55985986
O      3.03567386    -0.62058458     0.65583743
C      1.67896436    -0.62598009     0.35909472
C      1.17559680    -1.72651594    -0.20805476
C     -0.24308471    -1.87706113    -0.56514453
O     -0.64387097    -2.90704004    -1.09136781
C     -1.14667163    -0.75359164    -0.27300498
C     -2.50409946    -0.85372526    -0.60619947
C     -3.36988057     0.20574908    -0.33220232
C     -2.88391645     1.36345499     0.27368096
C     -1.53135800     1.46331537     0.60601742
C     -0.65724144     0.40152131     0.33154775
C      0.77251644     0.52274452     0.69104182
O      1.16972343     1.54105853     1.24616862
H      4.76261449     0.44826856     0.44334518
H      3.35755142     1.20933130    -0.31421874
H      3.56068245     1.21191457     1.48272404
H      1.81018918    -2.57533148    -0.43844532
H     -2.88981591    -1.75591306    -1.07846999
H     -4.42372242     0.12702760    -0.59067804
H     -3.55829579     2.18961965     0.48900235
H     -1.16303714     2.37167144     1.08053124
