22
conf 5 ff=MMFF E=52.469 Rg=3.09 smiles=COC1=CC(=O)c2ccccc2C1=O
C      3.68636775    -0.78591532     0.15109141
O      3.06499441     0.20798409    -0.65798746
C      1.70030620     0.38245810    -0.46843462
C      1.20683393     1.61364685    -0.63237276
C     -0.21808337     1.94239301    -0.47626857
O     -0.60952605     3.09187709    -0.63072124
C     -1.13953243     0.85017310    -0.12697730
C     -2.50374179     1.12357716     0.03986961
C     -3.38640384     0.09445736     0.36995534
C     -2.91052584    -1.20573171     0.53300829
C     -1.55120037    -1.47841132     0.36653215
C     -0.66016915    -0.44713468     0.03586204
C      0.77661322    -0.75293653    -0.13815358
O      1.16566854    -1.90887738    -0.01430860
H      4.75776717    -0.56502935     0.18278442
H      3.31166151    -0.76863925     1.18011454
H      3.57021092    -1.77539933    -0.29971180
H      1.85466103     2.44439754    -0.89015213
H     -2.88159427     2.13688836    -0.08736806
H     -4.44548171     0.30741305     0.49877165
H     -3.59801863    -2.00915809     0.78906830
H     -1.19080722    -2.49803275     0.49469355
