22
conf 7 ff=MMFF E=53.650 Rg=3.18 smiles=COC1=CC(=O)c2ccccc2C1=O
C      4.01488075     0.30857131    -0.03724425
O      2.83131660     1.04570140    -0.31246705
C      1.61441648     0.39531120    -0.23608193
C      1.44055234    -0.89624811     0.08073102
C      0.11545597    -1.53799109     0.14695152
O      0.02182856    -2.72260397     0.44237247
C     -1.06757152    -0.71716541    -0.14961276
C     -2.34319291    -1.29448801    -0.09617141
C     -3.47079300    -0.52149611    -0.37644241
C     -3.32728073     0.82479096    -0.70946275
C     -2.05594703     1.39961371    -0.76258613
C     -0.92090099     0.62608155    -0.48162414
C      0.41754372     1.24640074    -0.54140593
O      0.52947412     2.43218288    -0.83579538
H      4.86709084     0.98570377    -0.14729030
H      4.01247720    -0.06588720     0.99148969
H      4.14084109    -0.51083190    -0.75224830
H      2.26139163    -1.56340155     0.31142787
H     -2.46175573    -2.34527754     0.16326995
H     -4.46118039    -0.96975657    -0.33493909
H     -4.20532491     1.42878952    -0.92823434
H     -1.95332209     2.45200042    -1.02361054
