22
conf 0 ff=MMFF E=52.469 Rg=3.09 smiles=COC1=CC(=O)c2ccccc2C1=O
C      3.75937447    -0.20700001    -0.22638466
O      2.93023861     0.78301796    -0.82716448
C      1.57700630     0.71087028    -0.52335233
C      0.89662391     1.85945871    -0.45979040
C     -0.54142701     1.93337020    -0.16082439
O     -1.10851391     3.01686234    -0.10739702
C     -1.25896737     0.67065648     0.07304302
C     -2.62817787     0.69851850     0.36992831
C     -3.31841368    -0.49366913     0.59219565
C     -2.64538124    -1.71230646     0.51813162
C     -1.28105628    -1.74028531     0.22204191
C     -0.58294138    -0.54458624    -0.00101554
C      0.86185963    -0.59162383    -0.31482556
O      1.42480915    -1.67737796    -0.39926342
H      4.78563807     0.17306493    -0.23103585
H      3.47918357    -0.39810502     0.81503655
H      3.74910743    -1.12664063    -0.81795235
H      1.39083330     2.81038723    -0.62641350
H     -3.15959725     1.64719622     0.42794648
H     -4.38154025    -0.47124481     0.82208377
H     -3.18281672    -2.64254841     0.68993429
H     -0.76584149    -2.69801502     0.16507792
