22
conf 3 ff=MMFF E=52.469 Rg=3.09 smiles=COC1=CC(=O)c2ccccc2C1=O
C      3.64695798    -0.95874484    -0.13149950
O      3.07066837     0.22189180    -0.68152179
C      1.71549466     0.40761770    -0.44119897
C      1.27834380     1.66380432    -0.31039066
C     -0.13001035     2.00986893    -0.06623473
O     -0.46893727     3.17996577     0.05375934
C     -1.09983099     0.90810386     0.03157001
C     -2.45004898     1.19522147     0.27267038
C     -3.37827424     0.15751257     0.36593792
C     -2.96183818    -1.16475317     0.21852915
C     -1.61646634    -1.45103756    -0.02199098
C     -0.67978350    -0.41146541    -0.11542667
C      0.74144835    -0.73160650    -0.37184172
O      1.07766035    -1.90079160    -0.52307241
H      4.72732551    -0.79860979    -0.06185749
H      3.48546182    -1.81081595    -0.79760058
H      3.27441637    -1.16378507     0.87783552
H      1.96302116     2.50232515    -0.37650366
H     -2.78156878     2.22608481     0.38747698
H     -4.42645837     0.38126332     0.55258082
H     -3.68490381    -1.97457330     0.28973217
H     -1.30267755    -2.48747651    -0.13717084
