56
cfg0 ip=3.2 off=0.0 anti E=-31287.8694 fmax=0.046
C        4.95214075       0.12474801      -0.38668129       0.03684971       0.00435927      -0.01050878
N        3.50589579       0.03243978      -0.16919648      -0.00409538      -0.03143220       0.01524561
C        2.81403637      -1.08978445      -0.49094732       0.01417343       0.00389545      -0.01376660
C        1.46736444      -1.17422252      -0.34561542      -0.02696040      -0.02430869      -0.02315114
C        0.69936983      -0.06866407       0.13425084       0.00910338       0.02589140      -0.00192467
C       -0.71767197      -0.03708564       0.07337091      -0.00449805      -0.01645123      -0.01922537
C       -1.48585066      -1.12305173      -0.45616455      -0.02164821      -0.00573222      -0.01942161
C       -2.80805947      -0.99072095      -0.71946979      -0.00031306       0.00826339      -0.00436754
N       -3.48076200       0.16684072      -0.47636475      -0.00434832       0.00833589       0.03011742
C       -4.89849671       0.27846731      -0.83007198      -0.03594031       0.00645407      -0.01319320
C       -2.79921887       1.21673096       0.04746408      -0.00360040       0.00929557      -0.01171774
C       -1.47430396       1.14698421       0.33358790       0.02019505       0.03067135      -0.00015143
C        1.47689553       1.08222585       0.48219854       0.00109914       0.01735185      -0.00830395
C        2.82060235       1.10384923       0.31465200       0.02483794       0.00353453      -0.00820735
H        5.33496390      -0.85193718      -0.66676086      -0.00190701      -0.01610074       0.00039432
H        5.17377010       0.83023551      -1.18467501      -0.02955817       0.02429417      -0.02321816
H        5.44495852       0.45138026       0.52684699       0.00219811       0.00679759       0.01125186
H        3.39593012      -1.90814398      -0.89090151       0.00385098      -0.00935297       0.00653704
H        1.00129130      -2.09865279      -0.64920561      -0.00673243      -0.00289603      -0.02434897
H       -1.03238877      -2.07053886      -0.70183546       0.01464650      -0.01286925      -0.02364307
H       -3.38758964      -1.78915933      -1.16242461      -0.00737391      -0.01100915       0.00768888
H       -5.46092999      -0.53198446      -0.37078486      -0.00330701      -0.01273248       0.00437189
H       -5.28380090       1.22712169      -0.46882120       0.00156263       0.01207366       0.01048641
H       -5.02691327       0.23626965      -1.90954910       0.03301106      -0.00568047      -0.03126016
H       -3.36862547       2.12189863       0.20460691      -0.00519260       0.00326653       0.01049200
H       -1.01270568       2.03963088       0.72595231       0.00969600       0.01872284      -0.01575609
H        1.01694833       1.98562120       0.85136671      -0.01037431       0.02242627      -0.01289027
H        3.41175454       1.98360181       0.53038756       0.00227210      -0.00127078       0.01264196
C       -5.10008720      -1.27264946       3.32588780       0.01375542       0.00146600      -0.00057395
N       -3.66160738      -1.16950259       3.05681559       0.00572182       0.02804206      -0.01231499
C       -2.99105178      -0.02724752       3.36586655      -0.01511500      -0.00004299       0.01287176
C       -1.64728338       0.07836655       3.23339402      -0.00012183       0.02642647       0.00929138
C       -0.85403026      -1.02262710       2.77942275      -0.01569497      -0.02546811       0.00601670
C        0.56150599      -1.01897104       2.85177478       0.01335782       0.01566277       0.02090557
C        1.30189805       0.07490818       3.40172064       0.03924774      -0.01249601       0.01705320
C        2.62837001      -0.03420730       3.66906192      -0.00375462      -0.00590530       0.00462043
N        3.32700805      -1.16993320       3.40881779      -0.00267599      -0.01461852      -0.02555428
C        4.73140209      -1.30695917       3.81034543      -0.01394973      -0.00040125      -0.00309609
C        2.66837591      -2.22828111       2.86471062       0.00864366      -0.00801654       0.00970186
C        1.34583848      -2.18355741       2.57586244       0.00483536      -0.02658147      -0.00617634
C       -1.60535832      -2.19363077       2.44555184      -0.03547721       0.00037659       0.01505342
C       -2.95313653      -2.23564470       2.60165046      -0.00231033      -0.00001044       0.00851445
H       -5.56624089      -0.30629309       3.14506299      -0.01475495      -0.03935910       0.00845336
H       -5.54097775      -2.01205363       2.66173774       0.00769718       0.00308343       0.01226800
H       -5.27443027      -1.56806096       4.36006312       0.00654043      -0.00231065      -0.01770585
H       -3.59352037       0.78464323       3.74889579      -0.00502112       0.01233727       0.00140238
H       -1.20048427       1.01792383       3.52106588      -0.00297824      -0.00743480       0.01562173
H        0.82754809       1.00911308       3.65945264      -0.00885338      -0.00132512       0.01896528
H        3.18912400       0.77395561       4.11756096       0.00258449       0.00982184       0.00759223
H        4.80234330      -1.74293502       4.80638722      -0.00451629       0.01381765      -0.01300293
H        5.24378530      -1.95141103       3.09897254       0.01275209       0.02476559       0.03316504
H        5.20522377      -0.32836304       3.81180385      -0.00927524      -0.00964950       0.00660283
H        3.25987119      -3.11813630       2.70014429       0.00596517      -0.01145690      -0.00640775
H        0.90548654      -3.07861060       2.16343376       0.00074826      -0.00443814       0.01682734
H       -1.12635600      -3.09507344       2.09601423       0.00673580      -0.01058371       0.01608888
H       -3.52582175      -3.12688948       2.38593586      -0.00173277      -0.01149877      -0.00035515
