38
conf 6 ff=MMFF E=79.899 Rg=4.50 smiles=CC1=C(OCc2ccc(C)cc2)C(=O)c2ccccc2C1=O
C      6.49573586     0.31431402    -0.23811875
C      5.05155884     0.22487979     0.15659631
C      4.20673121    -0.71020632    -0.45138799
C      2.85405867    -0.77187838    -0.10788960
C      2.32218280     0.10273892     0.84887017
C      0.85678167     0.04931786     1.20351276
C      3.16325618     1.05639206     1.43593194
C      4.51584442     1.11716602     1.09185453
C     -0.66312029     0.81788980    -2.46425649
C     -1.54157051     0.44211718    -1.30420113
C     -1.13625582     0.45940985    -0.02352476
O      0.15648755     0.87436570     0.26914553
C     -2.07697954     0.10065401     1.08643771
O     -1.73684210     0.13181452     2.26434111
C     -3.44977982    -0.30058603     0.73191852
C     -4.35237675    -0.65139769     1.74670664
C     -5.65548306    -1.03487056     1.42527659
C     -6.06201737    -1.06945182     0.09278672
C     -5.16565790    -0.72012942    -0.91834058
C     -3.85638970    -0.33454216    -0.59672496
C     -2.92213480     0.03202284    -1.67346507
O     -3.28271688    -0.00648011    -2.84447500
H      6.88220733    -0.66767789    -0.53061789
H      6.61184417     1.00520718    -1.07877586
H      7.10804660     0.66776851     0.59816663
H      4.59653073    -1.39599871    -1.20021992
H      2.21553615    -1.50380050    -0.59704338
H      0.70865434     0.43302704     2.21910696
H      0.51683957    -0.99430426     1.16893243
H      2.76716659     1.76394483     2.16128525
H      5.14822353     1.86977411     1.55742746
H     -0.56049235    -0.02716631    -3.15349837
H      0.34599749     1.11107276    -2.15914862
H     -1.09569818     1.66247759    -3.01122100
H     -4.04449035    -0.62628945     2.79100297
H     -6.35288170    -1.30558005     2.21516294
H     -7.07730064    -1.36734529    -0.16019304
H     -5.49149595    -0.74864965    -1.95711983
