38
conf 8 ff=MMFF E=79.899 Rg=4.50 smiles=CC1=C(OCc2ccc(C)cc2)C(=O)c2ccccc2C1=O
C      6.44581221    -0.87930369     0.08638736
C      5.04303650    -0.39465049    -0.12989890
C      4.06816288    -1.25337084    -0.64950241
C      2.75367192    -0.81242543    -0.82038457
C      2.39082227     0.49540192    -0.47228608
C      0.96627636     0.96381362    -0.63745816
C      3.36157276     1.34462498     0.07357590
C      4.67584654     0.90276517     0.24394192
C     -0.82264185    -1.73014389     1.79065791
C     -1.61626080    -0.77144438     0.94823544
C     -1.09173898     0.31505055     0.35737367
O      0.25342791     0.60332032     0.54831244
C     -1.95041377     1.24503536    -0.44479959
O     -1.49907959     2.25533186    -0.97368966
C     -3.37966050     0.91835424    -0.59242509
C     -4.20883490     1.76341080    -1.34468397
C     -5.56431532     1.46542228    -1.49411263
C     -6.09641053     0.32553430    -0.89451344
C     -5.27320366    -0.51621156    -0.14507282
C     -3.91141373    -0.21785369     0.00594491
C     -3.05535736    -1.11419450     0.79986515
O     -3.52694969    -2.11922846     1.31974311
H      6.54025561    -1.31883171     1.08409347
H      7.16220684    -0.05638715    -0.00753155
H      6.71807717    -1.63297141    -0.65999485
H      4.32578007    -2.27427957    -0.92223344
H      2.01192138    -1.49905997    -1.22167427
H      0.94791300     2.05211580    -0.76344267
H      0.53718994     0.49872519    -1.53494144
H      3.09734680     2.35556502     0.37663649
H      5.41103492     1.57882570     0.67466785
H     -0.85770759    -2.73589820     1.35829430
H      0.23201893    -1.45157532     1.87701265
H     -1.23170318    -1.77330927     2.80576193
H     -3.80262693     2.65716367    -1.81603764
H     -6.20440289     2.12361934    -2.07774475
H     -7.15266588     0.09152609    -1.00898114
H     -5.69698686    -1.40446668     0.32124820
