38
conf 0 ff=MMFF E=79.899 Rg=4.50 smiles=CC1=C(OCc2ccc(C)cc2)C(=O)c2ccccc2C1=O
C      6.49162444    -0.02743921     0.43805698
C      5.02650300    -0.32813958     0.54961087
C      4.11467526     0.68922197     0.85178817
C      2.74648653     0.41636896     0.92340082
C      2.26613713    -0.87933815     0.69177759
C      0.78650567    -1.16829042     0.74852374
C      3.17762567    -1.89028458     0.36211352
C      4.54565888    -1.61644212     0.29088325
C     -0.41831777     1.36497009    -2.16424483
C     -1.40032149     0.61282348    -1.31068975
C     -1.07053816    -0.43800027    -0.54145510
O      0.24275969    -0.88996373    -0.54416041
C     -2.10939201    -1.16011117     0.26167679
O     -1.83666157    -2.13601783     0.95258098
C     -3.49687324    -0.66692159     0.20765565
C     -4.49148996    -1.31486564     0.95495034
C     -5.80970857    -0.85757965     0.91439718
C     -6.13972419     0.24557688     0.12945844
C     -5.15167792     0.89125080    -0.61534537
C     -3.82711353     0.43272511    -0.57560543
C     -2.79568471     1.12300343    -1.36695927
O     -3.08994497     2.09704959    -2.05063378
H      7.09166709    -0.90287685     0.70784597
H      6.73620492     0.26718462    -0.58707698
H      6.77682365     0.78291469     1.11718697
H      4.46422745     1.70353025     1.03067299
H      2.05609289     1.22400718     1.15528655
H      0.32939228    -0.54833599     1.53121709
H      0.62578462    -2.22306785     0.99796086
H      2.82574080    -2.89796782     0.15137208
H      5.23374565    -2.41674906     0.02796393
H     -0.71677038     1.32014523    -3.21712040
H     -0.37552904     2.41605728    -1.85912865
H      0.59880993     0.96698781    -2.09770053
H     -4.24371478    -2.17849445     1.57036011
H     -6.57850207    -1.36317005     1.49483071
H     -7.16653091     0.60344170     0.09569865
H     -5.41797029     1.75196520    -1.22714974
