38
conf 3 ff=MMFF E=79.899 Rg=4.50 smiles=CC1=C(OCc2ccc(C)cc2)C(=O)c2ccccc2C1=O
C      6.49035464    -0.15621067    -0.45655971
C      5.05543498     0.12576556    -0.12347648
C      4.18684853    -0.91853926     0.21231686
C      2.84242830    -0.66040071     0.49055604
C      2.34271341     0.64746584     0.43565039
C      0.88595725     0.92226682     0.71559670
C      3.20721819     1.68768500     0.07222429
C      4.55153144     1.42853075    -0.20569512
C     -0.71539587    -1.36401027    -2.21045432
C     -1.56891628    -0.69182043    -1.17205215
C     -1.13232386     0.29249117    -0.36879228
O      0.17117977     0.75050499    -0.51067888
C     -2.04914910     0.93867017     0.62497204
O     -1.68008515     1.85459364     1.35229696
C     -3.43404638     0.44392220     0.71740155
C     -4.31499996     1.02113684     1.64384162
C     -5.62924226     0.56141929     1.74324227
C     -6.06848258    -0.47372815     0.92011680
C     -5.19369259    -1.04892133    -0.00278928
C     -3.87326381    -0.58786614    -0.10374578
C     -2.96202395    -1.20335444    -1.08220715
O     -3.35143259    -2.11815459    -1.79933246
H      6.85987920    -1.01918517     0.10731615
H      6.59270036    -0.36219438    -1.52643005
H      7.12635243     0.69681072    -0.19753574
H      4.55147696    -1.94231132     0.25645889
H      2.18497670    -1.48856411     0.74471767
H      0.53505730     0.23615733     1.49791655
H      0.76644390     1.95142617     1.07218216
H      2.83594504     2.70752109    -0.00361503
H      5.20246887     2.25198813    -0.49079653
H      0.30368357    -0.96728180    -2.24854795
H     -0.63788204    -2.43676104    -2.00331292
H     -1.15290935    -1.23255280    -3.20591018
H     -3.98149662     1.83138694     2.29056333
H     -6.30977141     1.01208133     2.46251357
H     -7.09249687    -0.83329658     0.99526002
H     -5.54504017    -1.85667080    -0.64321183
