38
conf 4 ff=MMFF E=79.899 Rg=4.50 smiles=CC1=C(OCc2ccc(C)cc2)C(=O)c2ccccc2C1=O
C      6.47823755    -0.60634821    -0.12492751
C      5.04388955    -0.33270000     0.21742962
C      4.07816591    -1.33586508     0.08030788
C      2.73671191    -1.07221620     0.36755053
C      2.33740930     0.20092504     0.79523241
C      0.88534408     0.49026322     1.08473790
C      3.30112643     1.21120998     0.90511622
C      4.64237281     0.94651446     0.61776307
C     -0.62058727    -0.34641215    -2.57386086
C     -1.50914058    -0.03822484    -1.40163607
C     -1.07342584     0.51992080    -0.25999862
O      0.26660240     0.86742466    -0.14776683
C     -2.02296197     0.82730223     0.85784848
O     -1.65278398     1.35794262     1.89972835
C     -3.44230159     0.47273230     0.68174304
C     -4.35537308     0.73867922     1.71281838
C     -5.70259661     0.40677147     1.56023918
C     -6.14286817    -0.19033829     0.38057234
C     -5.23607632    -0.45517122    -0.64678170
C     -3.88247833    -0.12204913    -0.49480221
C     -2.93761221    -0.40645693    -1.58700745
O     -3.32879391    -0.93795736    -2.62008676
H      6.65590370    -0.40018153    -1.18485845
H      7.14889291     0.01802586     0.47474528
H      6.73660585    -1.65039459     0.08108472
H      4.36425696    -2.33029731    -0.25475654
H      2.00306294    -1.86622643     0.24922350
H      0.42169211    -0.40339087     1.52327205
H      0.80934255     1.31358519     1.80374413
H      3.01083136     2.21469050     1.20911928
H      5.37183214     1.74856441     0.70542853
H     -0.63718972    -1.41957313    -2.79240305
H     -0.96179282     0.19502454    -3.46271126
H      0.42362414    -0.06681065    -2.40411199
H     -4.02120524     1.20614621     2.63790332
H     -6.40790238     0.61522726     2.36189637
H     -7.19247939    -0.44934242     0.25903366
H     -5.58833521    -0.92099366    -1.56600425
