38
conf 2 ff=MMFF E=79.899 Rg=4.50 smiles=CC1=C(OCc2ccc(C)cc2)C(=O)c2ccccc2C1=O
C     -6.50320461     0.08093150     0.25733659
C     -5.05319095     0.19699063    -0.10795500
C     -4.52546593     1.42071019    -0.53443946
C     -3.16817002     1.53848690    -0.84339883
C     -2.31434833     0.43418176    -0.72935353
C     -0.84430367     0.56476737    -1.04230592
C     -2.83883462    -0.78331836    -0.27565048
C     -4.19622807    -0.90003474     0.03318498
C      0.61853062    -0.37061108     2.60987338
C      1.51737616    -0.17532848     1.42136339
C      1.12611624     0.40833170     0.27638817
O     -0.17149362     0.89320864     0.17572953
C      2.08630892     0.59722297    -0.85852776
O      1.75877940     1.14813934    -1.90415809
C      3.46297584     0.09794676    -0.69491125
C      4.38382789     0.25079970    -1.74191235
C      5.69082598    -0.21869963    -1.60125788
C      6.08307555    -0.84101945    -0.41768194
C      5.16853224    -0.99347739     0.62550080
C      3.85533297    -0.52208786     0.48551012
C      2.90182143    -0.68901600     1.59434818
O      3.25001801    -1.24311977     2.63092554
H     -6.87271517    -0.93313082     0.07194387
H     -6.64280225     0.32058437     1.31592349
H     -7.11326791     0.76327984    -0.34387188
H     -5.16788772     2.29364779    -0.62586827
H     -2.77858873     2.50118057    -1.16759771
H     -0.48348014    -0.37919083    -1.47202053
H     -0.69276096     1.36463433    -1.77569245
H     -2.19095512    -1.64823982    -0.15375157
H     -4.58022569    -1.85370806     0.38823274
H      0.52550395    -1.43615063     2.84585093
H     -0.39289729     0.01475328     2.44901688
H      1.02762339     0.14521637     3.48519948
H      4.08717588     0.73687867    -2.67019003
H      6.40238721    -0.09768689    -2.41526291
H      7.10134455    -1.20717255    -0.30542654
H      5.48326459    -1.47990031     1.54766225
