38
conf 9 ff=MMFF E=79.899 Rg=4.50 smiles=CC1=C(OCc2ccc(C)cc2)C(=O)c2ccccc2C1=O
C      6.46870335    -0.71471295    -0.04645206
C      5.04632196    -0.27144477    -0.21905442
C      4.07373960    -1.16924551    -0.67271004
C      2.74249687    -0.76611465    -0.80230833
C      2.36039519     0.54238468    -0.47816225
C      0.91874390     0.97043130    -0.59833020
C      3.33016287     1.43139337     0.00216710
C      4.66119214     1.02732879     0.13128292
C     -0.70046748    -1.69082719     1.98025176
C     -1.55195891    -0.77819814     1.14318407
C     -1.07994825     0.30220241     0.49924978
O      0.26395657     0.62913927     0.62597781
C     -1.99405078     1.18578875    -0.29408402
O     -1.59066841     2.19015639    -0.87084405
C     -3.41920039     0.81974779    -0.37294273
C     -4.29962753     1.62071176    -1.11513272
C     -5.65190922     1.28509498    -1.19968079
C     -6.12975922     0.15142546    -0.54512535
C     -5.25549196    -0.64646111     0.19439842
C     -3.89685029    -0.31027796     0.28025988
C     -2.98656062    -1.16056657     1.06445147
O     -3.41067218    -2.16047156     1.63285975
H      6.61456364    -1.12145286     0.95893713
H      6.73002706    -1.48366396    -0.78106510
H      7.15927385     0.12235107    -0.19365413
H      4.34637268    -2.19134333    -0.92568480
H      2.00310912    -1.48264443    -1.15243086
H      0.86728323     2.05357330    -0.75568880
H      0.46582695     0.46762944    -1.46317626
H      3.05240627     2.44428215     0.28600702
H      5.39548383     1.73402066     0.51139321
H     -1.06687451    -1.71283206     3.01218657
H     -0.72706903    -2.70993788     1.57973585
H      0.34929444    -1.38394887     2.01475684
H     -3.93598978     2.50928423    -1.62912061
H     -6.33183105     1.90916170    -1.77570958
H     -7.18339597    -0.11184492    -0.60898703
H     -5.63702788    -1.53011878     0.70393181
