38
conf 1 ff=MMFF E=79.899 Rg=4.50 smiles=CC1=C(OCc2ccc(C)cc2)C(=O)c2ccccc2C1=O
C     -6.49251793     0.16475592     0.30658099
C     -5.05849162    -0.00371730    -0.09917185
C     -4.15315086    -0.65202953     0.74806827
C     -2.81021090    -0.78024649     0.38531508
C     -2.34883554    -0.25998979    -0.83111795
C     -0.89406431    -0.38042593    -1.21211783
C     -3.25064530     0.41295236    -1.66501836
C     -4.59344121     0.54052193    -1.30142055
C      0.70014760     1.62374034     1.91758729
C      1.55913857     0.91018779     0.91180954
C      1.11448847     0.48351792    -0.28190244
O     -0.20439125     0.73301572    -0.63874539
C      2.03640116    -0.19513841    -1.24895265
O      1.65933291    -0.57209304    -2.35342116
C      3.43646414    -0.40834238    -0.84198030
C      4.32284819    -1.04889466    -1.72036508
C      5.65148919    -1.25879109    -1.34739018
C      6.09973831    -0.83099110    -0.09917041
C      5.21954041    -0.19285919     0.77598635
C      3.88464209     0.01875778     0.40240737
C      2.96781778     0.69386634     1.33526821
O      3.36543410     1.06230628     2.43477606
H     -7.14579071     0.19658847    -0.57174203
H     -6.82404937    -0.67452678     0.92699871
H     -6.61469575     1.09333814     0.87256048
H     -4.48775616    -1.05951801     1.69938427
H     -2.12388341    -1.28400804     1.06197890
H     -0.50537109    -1.34008807    -0.84623478
H     -0.79495537    -0.35479915    -2.30304693
H     -2.91004968     0.84901244    -2.60176908
H     -5.27387060     1.07187990    -1.96305357
H     -0.33028797     1.76388097     1.57710399
H      1.10977606     2.61674253     2.13154960
H      0.65777737     1.05580307     2.85319516
H      3.98234558    -1.38569569    -2.69842415
H      6.33616616    -1.75533833    -2.03165953
H      7.13495406    -0.99284621     0.19352545
H      5.57795685     0.13947131     1.74919729
