38
conf 5 ff=MMFF E=79.899 Rg=4.50 smiles=CC1=C(OCc2ccc(C)cc2)C(=O)c2ccccc2C1=O
C      6.48291389    -0.20696337    -0.49419531
C      5.05391316    -0.12572681    -0.04608530
C      4.18486959     0.81252780    -0.61371558
C      2.84551164     0.86678041    -0.22040015
C      2.35138292    -0.01854287     0.74669675
C      0.89980780     0.02701506     1.15520316
C      3.21596058    -0.97517461     1.29337966
C      4.55520813    -1.02852971     0.89948947
C     -0.75122803    -0.71080172    -2.46181994
C     -1.58764696    -0.34891048    -1.26680909
C     -1.13569612    -0.37732301    -0.00203886
O      0.16800276    -0.79114433     0.23910565
C     -2.03612985    -0.03214106     1.14502401
O     -1.65303643    -0.07363542     2.30934420
C     -3.42204970     0.36834432     0.84486371
C     -4.28784430     0.70661997     1.89534668
C     -5.60286011     1.08922714     1.62553000
C     -6.05796948     1.13542934     0.30919641
C     -5.19827870     0.79858704    -0.73738579
C     -3.87709410     0.41387938    -0.46763069
C     -2.98189259     0.06053223    -1.58133150
O     -3.38519008     0.10922286    -2.73794091
H      6.57005213    -0.88943613    -1.34517225
H      6.85575816     0.77896050    -0.79112274
H      7.12637144    -0.56651927     0.31568665
H      4.54513925     1.50662876    -1.36964740
H      2.18753550     1.60138055    -0.67879093
H      0.55602803     1.06988446     1.14321014
H      0.78998281    -0.36687974     2.17176208
H      2.84860151    -1.69080998     2.02589132
H      5.20624044    -1.78360314     1.33435538
H      0.26916201    -1.00384663    -2.19668613
H     -1.20126149    -1.55138518    -3.00081829
H     -0.67615859     0.14117931    -3.14607370
H     -3.94188682     0.67237964     2.92739194
H     -6.27161087     1.35018829     2.44299032
H     -7.08262300     1.43267510     0.09642487
H     -5.56198452     0.83613748    -1.76322783
