38
conf 7 ff=MMFF E=79.899 Rg=4.50 smiles=CC1=C(OCc2ccc(C)cc2)C(=O)c2ccccc2C1=O
C      6.48666771    -0.48695095     0.19483017
C      5.05397445    -0.04328839     0.19592578
C      4.62851373     0.98093072    -0.65720888
C      3.28782375     1.37279174    -0.68113927
C      2.34858131     0.74544339     0.14697084
C      0.89653989     1.15289785     0.10719380
C      2.77103914    -0.29861827     0.98046223
C      4.11191152    -0.68982581     1.00355971
C     -0.67141124    -2.37824019    -1.08694043
C     -1.54030056    -1.21774680    -0.69083725
C     -1.09299726     0.04302429    -0.56801768
O      0.23970624     0.31604688    -0.84800416
C     -2.02407802     1.15747178    -0.19817774
O     -1.64387153     2.31959905    -0.10314080
C     -3.43733585     0.82712120     0.05643723
C     -4.33289944     1.84587729     0.41371390
C     -5.67413635     1.54711998     0.65923508
C     -6.12585478     0.23341102     0.54919192
C     -5.23651037    -0.78156892     0.19317888
C     -3.88894663    -0.48270761    -0.05390950
C     -2.96254491    -1.56317452    -0.42932880
O     -3.36352406    -2.71819343    -0.51826790
H      6.77696282    -0.87225627     1.17793821
H      6.63426307    -1.27361838    -0.55142273
H      7.15448277     0.34980619    -0.03557931
H      5.33857342     1.47951444    -1.31318646
H      2.97850213     2.16759744    -1.35660835
H      0.46676313     1.04873713     1.11235380
H      0.81568332     2.20097560    -0.20200528
H      2.05587013    -0.81880527     1.61341703
H      4.41607751    -1.50602872     1.65494485
H     -0.66491063    -3.13626030    -0.29632445
H      0.36875936    -2.09121182    -1.26866803
H     -1.04724348    -2.83836996    -2.00708196
H     -3.98972808     2.87572218     0.50104601
H     -6.36587757     2.34007438     0.93542753
H     -7.17085601    -0.00182103     0.73939912
H     -5.59766864    -1.80547593     0.10820346
