41
viologen/ox2 q=2 m=1 E=-22993.282040eV conf=1 model=uma-s-1p2p1
C       -6.35002183      -0.31549291       1.57790745      -0.00753576       0.00506895      -0.00580641
C       -5.22790384      -0.29968343       0.58150110      -0.01271232       0.00088520       0.00141981
C       -4.48350336       0.86173670       0.36558257      -0.00047194      -0.00707081       0.00151424
C       -3.48522096       0.89868748      -0.58949486       0.00051733       0.00312354       0.00307659
C       -3.19963778      -0.23373720      -1.34797426       0.01292377       0.00677173      -0.01296581
C       -2.12506010      -0.19196750      -2.39099199       0.00416369      -0.00179881      -0.00045530
C       -3.92403864      -1.39894671      -1.13310953      -0.01238700      -0.01114863       0.00104680
C       -4.92911572      -1.42678259      -0.17823910       0.00308917       0.01234651      -0.00502810
N       -0.76289535      -0.09208183      -1.75191236       0.00068207      -0.00103091      -0.00976804
C       -0.29548747      -1.14207569      -1.05971470       0.00375747      -0.00071357       0.00198165
C        0.93025353      -1.08686867      -0.43699117      -0.00795475       0.00408722      -0.00662235
C        1.67684227       0.08829748      -0.50423096      -0.00132598      -0.00100666       0.00437471
C        3.00254024       0.19132783       0.16158854      -0.00766261      -0.00133872      -0.01038901
C        3.28991650       1.25866671       1.00921324       0.00182122      -0.00790094       0.00370482
C        4.52591247       1.33437976       1.61005281      -0.00341817      -0.00536414      -0.00791605
N        5.46266639       0.40008622       1.37974060       0.00885073      -0.00335981       0.00228754
C        6.77208900       0.48650330       2.07070001       0.00497606       0.00424802      -0.00514577
C        5.21170783      -0.63545496       0.56210147       0.00594871      -0.00007963       0.01388412
C        3.98843654      -0.76844412      -0.05474420      -0.00197654       0.00594711      -0.00169849
C        1.15817538       1.17021207      -1.20649638      -0.00213480       0.00225180      -0.00123424
C       -0.06414875       1.04584196      -1.83119362       0.00032963       0.00079521       0.00213042
H       -7.28155210      -0.00898987       1.09786266       0.00907117      -0.01010974      -0.00359999
H       -6.15977362       0.37440526       2.39851967       0.00152259       0.00965950      -0.00077702
H       -6.50433953      -1.31231052       1.98743018      -0.00231580       0.00855866      -0.00119805
H       -4.70712086       1.75085076       0.94187295       0.00593342      -0.00899878       0.00355172
H       -2.94226700       1.82360322      -0.75737570      -0.00280077       0.00465025       0.01331277
H       -2.11580058      -1.09391179      -3.00032753      -0.00501228       0.00241668       0.00517483
H       -2.20879575       0.66972393      -3.05059624       0.00532258      -0.00823978      -0.00060682
H       -3.72820032      -2.28156860      -1.73181387       0.01032394      -0.00861249       0.00159536
H       -5.49942641      -2.33499399      -0.03157159       0.00848454      -0.00714381       0.01042745
H       -0.93985416      -2.00961362      -1.01667023      -0.00493800       0.00594987      -0.00311637
H        1.27535542      -1.94974944       0.11598224      -0.00034777       0.01040995       0.00333678
H        2.55844100       2.02470220       1.22658698       0.00091303       0.00500168       0.01116320
H        4.79720815       2.13233894       2.28663574      -0.00474834      -0.00313073       0.00326840
H        7.53642672       0.05418824       1.43260164       0.00198577       0.00179895      -0.00331711
H        6.71099798      -0.06098264       3.00855787       0.00295332       0.00680165       0.00686234
H        7.00329133       1.52991257       2.25943226      -0.00847685      -0.00971418      -0.00715180
H        6.01573348      -1.34354719       0.41919164      -0.00423734       0.00257191      -0.00123309
H        3.82769164      -1.60774768      -0.71731511      -0.00017607      -0.00843668       0.00043415
H        1.69769717       2.10245498      -1.29771873       0.00561247       0.00296197      -0.00494690
H       -0.50721899       1.84712773      -2.40457949      -0.00854990      -0.00110738      -0.00157105
