14
SMD(acetonitrile)-opt r2scan/def2-svp q=0 m=1
C -1.40948032 -0.00379343 -0.00002216
C -0.69422672 -1.21178707 -0.00001166
C 0.70296473 -1.20797936 -0.00000256
C 1.40950501 0.00379108 -0.00000382
C 0.69425151 1.21178479 -0.00001431
C -0.70293994 1.20797696 -0.00002342
H -1.26018393 2.14946060 -0.00003150
H 1.23794711 2.16321737 -0.00001541
O 2.76741634 -0.04615021 0.00000531
H 3.11333528 0.86160625 0.00000296
H 1.26020872 -2.14946301 0.00000553
H -1.23792232 -2.16321964 -0.00001056
O -2.76739166 0.04614787 -0.00003129
H -3.11331062 -0.86160858 -0.00002891
