39
phenothiazine/neu q=0 m=1 E=-33341.946954eV conf=0 model=uma-s-1p2p1
C        5.21581837       0.79277540      -0.42438871       0.00355180      -0.00125736      -0.00248149
C        3.79242788       0.80247346       0.06058570      -0.00299191       0.00090924      -0.00920313
C        2.78895948       0.16122768      -0.65528719       0.00204742      -0.00111007      -0.00260100
C        1.47763212       0.13993342      -0.19854519      -0.00186343       0.00835132       0.00305169
C        1.13706484       0.76563350       0.99172743       0.00059218       0.00600683      -0.00119059
C       -0.27844905       0.77854356       1.54027751       0.00123994       0.00289032      -0.00135694
C        2.13721593       1.41193446       1.71159741      -0.00275325       0.00453051      -0.00086759
C        3.44397604       1.43029919       1.25366788      -0.00105725       0.00613081      -0.01006535
N       -1.30226923       0.10156609       0.77186076      -0.00447159      -0.00647135      -0.00286086
C       -1.90548932       0.77447216      -0.30669940      -0.00262729      -0.00943326      -0.00534249
C       -1.29298831       1.86343236      -0.92545756       0.00466116       0.00121105       0.00292832
C       -1.92144625       2.52766972      -1.96984641      -0.00360859      -0.00713094      -0.00393589
C       -3.15235269       2.10079024      -2.43873057      -0.00890438       0.00141718       0.00575128
C       -3.76164221       1.00714581      -1.84140198       0.00198200      -0.00778617       0.00309247
C       -3.15979000       0.36589232      -0.77034430       0.00211516      -0.00024709      -0.00454492
S       -4.03784650      -0.89706385       0.09156993      -0.00479715       0.00579322      -0.00108138
C       -2.66524907      -1.89751018       0.56532372      -0.00215686      -0.00171953       0.00093796
C       -2.82830292      -3.26867449       0.68133526      -0.00297369      -0.00332541      -0.00464228
C       -1.80862140      -4.05703967       1.19407444      -0.00608489      -0.00795432       0.00080606
C       -0.61493529      -3.46048131       1.56335988      -0.00134643       0.00016206       0.00271352
C       -0.42910923      -2.09334471       1.40919770       0.00681859       0.00014936       0.00653408
C       -1.45429568      -1.29017666       0.91141688      -0.00260580       0.00073585       0.00288615
H        5.74481695       1.69542619      -0.12070119      -0.00803110       0.00050816       0.00207312
H        5.25971449       0.71970408      -1.51029659       0.01404613      -0.00365718      -0.00605841
H        5.75932334      -0.06059612      -0.01429591       0.00193600      -0.01036926       0.00089134
H        3.03466491      -0.33089866      -1.58914061      -0.00562761      -0.00616849       0.00477185
H        0.71437515      -0.36708145      -0.77684295      -0.00170257       0.01411802       0.00305720
H       -0.27510038       0.33410987       2.53866729      -0.00249289       0.01072622      -0.00018893
H       -0.60031719       1.81518176       1.66745910       0.00133245      -0.00660856       0.00484129
H        1.88918245       1.90996949       2.64341576       0.00396971       0.00498891       0.01053336
H        4.20627355       1.94146563       1.83054849       0.00854487       0.00444582       0.00406092
H       -0.31558896       2.19290076      -0.60161073       0.00509441       0.00533185      -0.00384087
H       -1.42942490       3.37651449      -2.42621267      -0.00559774       0.00056938       0.01474360
H       -3.63684031       2.60852955      -3.26171948      -0.00118997      -0.00636275       0.00351525
H       -4.72638586       0.65703787      -2.18740451       0.01062666       0.00836033      -0.01299190
H       -3.77298855      -3.71041035       0.38909816       0.00025530       0.00205941      -0.00573567
H       -1.94976073      -5.12415929       1.30013842       0.00012441      -0.00329190      -0.00449777
H        0.19255693      -4.06039255       1.96202513       0.00298628      -0.00277285       0.00320824
H        0.52519180      -1.65679966       1.66906315       0.00095994      -0.00372943       0.00308996
