54
bm_n_n_bis_2_2_methoxyethoxy_ethyl_pyromellitic_diimide conf 3 ff=MMFF E=26.773
C      5.41408609    -0.26801757     2.93367851
O      6.27784605    -0.98266279     2.05986447
C      5.78609862    -1.06222302     0.71628416
C      5.85270707     0.27531672    -0.02542149
O      4.71215245     1.07400373     0.31528611
C      4.66156003     2.31825359    -0.38820478
C      4.12598687     2.16316097    -1.81757582
N      2.82271297     1.52275271    -1.83578948
C      1.65968985     2.17010754    -1.52377821
O      1.47797553     3.34465712    -1.26968639
C      0.60442948     1.15803204    -1.52691441
C     -0.75304155     1.29021383    -1.28831910
C     -1.46569420     0.10536191    -1.36267070
C     -2.89335674    -0.14360820    -1.16495494
O     -3.69678658     0.72268937    -0.87659732
N     -3.08595232    -1.48342032    -1.36721689
C     -4.35065101    -2.16235206    -1.14665530
C     -4.43612593    -2.76160912     0.26403089
O     -4.18679466    -1.79458914     1.28788175
C     -5.30473512    -0.94456758     1.54878534
C     -4.89055535     0.13239920     2.54982084
O     -5.95140129     1.04938279     2.81843489
C     -6.03234654     2.08694083     1.84778565
C     -1.91528820    -2.13873420    -1.63100231
O     -1.72208855    -3.32533413    -1.80898091
C     -0.86344360    -1.12324287    -1.65093882
C      0.49481832    -1.25606959    -1.88491030
C      1.20688683    -0.07060447    -1.81441629
C      2.63747908     0.17603338    -1.99294806
O      3.44973637    -0.69637306    -2.23271480
H      4.38366947    -0.62701481     2.85241972
H      5.75763026    -0.43335580     3.95873504
H      5.46484385     0.80517370     2.73327729
H      6.43734004    -1.77777096     0.20371860
H      4.77005423    -1.47326418     0.71980706
H      5.85070382     0.08245889    -1.10184959
H      6.76411193     0.81829865     0.24749984
H      3.99058364     2.96964920     0.18237023
H      5.64887621     2.79411615    -0.39118427
H      4.03262858     3.15345783    -2.27661638
H      4.81282911     1.56424073    -2.42339533
H     -1.21806624     2.24119296    -1.05753135
H     -5.15974534    -1.44401584    -1.31025335
H     -4.44811744    -2.96552344    -1.88531602
H     -5.40773874    -3.24256466     0.42520358
H     -3.66904118    -3.53567902     0.37581498
H     -6.12979279    -1.53676931     1.96158434
H     -5.66412394    -0.48384993     0.62509248
H     -4.62593081    -0.35016135     3.49764293
H     -3.98796154     0.66015155     2.21745080
H     -5.10109621     2.66099837     1.82099920
H     -6.84486198     2.75969476     2.13561029
H     -6.25528697     1.68283987     0.85685537
H      0.96258807    -2.20945658    -2.10009177
