54
bm_n_n_bis_2_2_methoxyethoxy_ethyl_pyromellitic_diimide conf 6 ff=MMFF E=28.161
C      9.04939565    -0.25858720    -0.84111617
O      7.66732194     0.03148755    -0.67392811
C      6.99633848     0.13141705    -1.93655771
C      5.51576613     0.44584576    -1.71069394
O      4.71774900    -0.71293596    -1.43833079
C      4.98772316    -1.38269019    -0.20409701
C      4.60297411    -0.57510555     1.04182850
N      3.18170604    -0.26924581     1.06787726
C      2.64333380     0.92912902     0.68726458
O      3.19161317     1.95898448     0.34623698
C      1.19091612     0.77912493     0.77300300
C      0.18663401     1.69357823     0.50308528
C     -1.09647099     1.20796027     0.69031250
C     -2.38640638     1.87057772     0.50568919
O     -2.51304243     3.02217766     0.13815308
N     -3.34793957     0.95149794     0.82493066
C     -4.77354587     1.20817800     0.70178235
C     -5.23243790     1.20662551    -0.76140769
O     -5.00003897    -0.02586660    -1.44825723
C     -5.74676719    -1.15974586    -0.99147305
C     -7.26702461    -0.99751629    -1.10528281
O     -7.81310144    -0.26534919     0.00023145
C     -8.07467910    -1.08717499     1.13197240
C     -2.80952401    -0.24880861     1.19838697
O     -3.35997998    -1.27222529     1.55604831
C     -1.35707995    -0.09778353     1.11559686
C     -0.35290640    -1.01226087     1.38536395
C      0.93018295    -0.52615161     1.19914353
C      2.21968081    -1.19117822     1.37661296
O      2.34495931    -2.34771631     1.72930525
H      9.54278056     0.53845931    -1.40552026
H      9.17997898    -1.21850939    -1.34983114
H      9.50937607    -0.32240692     0.14858638
H      7.10825431    -0.81064596    -2.48463402
H      7.45541160     0.94732253    -2.50574329
H      5.38458686     1.19319120    -0.92420921
H      5.10850818     0.86850517    -2.63524574
H      4.39987817    -2.30733813    -0.22881263
H      6.03412128    -1.69624021    -0.15907678
H      4.83569218    -1.16804213     1.93348938
H      5.16567512     0.36111035     1.09637640
H      0.38860054     2.70465236     0.17000382
H     -5.31632135     0.45939356     1.28533612
H     -4.97569626     2.19410935     1.13516867
H     -4.67326144     1.96933187    -1.31508373
H     -6.28498620     1.49335397    -0.84055717
H     -5.44184290    -1.98738791    -1.64072946
H     -5.43830947    -1.41783019     0.02294830
H     -7.51096690    -0.43430395    -2.01203635
H     -7.75602723    -1.97602177    -1.17378522
H     -8.82333555    -1.84641541     0.88643730
H     -8.47309297    -0.45318959     1.92869092
H     -7.15998131    -1.56376241     1.49420764
H     -0.55439218    -2.02533498     1.71233950
