54
bm_n_n_bis_2_2_methoxyethoxy_ethyl_pyromellitic_diimide conf 5 ff=MMFF E=27.169
C     -7.85776991    -1.70360876     0.97569710
O     -6.86997640    -0.73239447     1.29232012
C     -5.63527325    -0.95273165     0.60994946
C     -5.64124452    -0.34961380    -0.79401088
O     -4.40518079    -0.65512249    -1.44211119
C     -4.29185432    -0.07465665    -2.74470215
C     -3.87808142     1.40171397    -2.69607848
N     -2.62562995     1.58521491    -1.98485445
C     -2.54329132     1.92317825    -0.66180389
O     -3.42641316     2.21617616     0.12007587
C     -1.12465872     1.88044067    -0.30884369
C     -0.50216180     2.14711604     0.89901962
C      0.87443255     1.99998703     0.87870129
C      1.85356494     2.18162855     1.94940754
O      1.56867308     2.48692641     3.09082612
N      3.08110717     1.92756391     1.40352319
C      4.31010860     1.89212870     2.17654137
C      4.44888685     0.58008146     2.95946420
O      4.41149008    -0.56790353     2.10670075
C      5.66683210    -0.84142942     1.48213217
C      5.50823422    -2.01250264     0.51884407
O      6.77836914    -2.33391967    -0.04811013
C      6.67241395    -3.39158401    -0.99177081
C      2.99447404     1.55196820     0.09082678
O      3.87197715     1.22540777    -0.68440527
C      1.57725456     1.61045793    -0.26557662
C      0.95445199     1.34055864    -1.47254984
C     -0.42164095     1.49148671    -1.45325807
C     -1.40256438     1.28804701    -2.51841449
O     -1.12469905     0.91205356    -3.64038723
H     -8.75951144    -1.47369661     1.54981560
H     -8.10995088    -1.67570018    -0.08766501
H     -7.51504805    -2.70430905     1.25592554
H     -4.84498049    -0.47053489     1.19673688
H     -5.38461577    -2.02043184     0.58453381
H     -5.79080197     0.73280027    -0.72313205
H     -6.46750417    -0.75970593    -1.38425957
H     -3.52638173    -0.65078827    -3.27587342
H     -5.22982877    -0.19726839    -3.29848172
H     -4.64827565     2.00180860    -2.20201127
H     -3.75100888     1.77305187    -3.71887936
H     -1.04821575     2.44164963     1.78740636
H      5.15245819     2.02413814     1.49075111
H      4.29936748     2.73145259     2.88047380
H      5.36682916     0.57959166     3.55855540
H      3.60863022     0.47908741     3.65502109
H      6.41214083    -1.08777054     2.24765039
H      6.03213644     0.03330679     0.93377380
H      4.79609204    -1.74677745    -0.27175700
H      5.10684005    -2.88267237     1.05195648
H      6.29068749    -4.29744897    -0.51099977
H      7.66962226    -3.60031808    -1.38832704
H      6.02048218    -3.10111902    -1.82126949
H      1.49900676     1.03242466    -2.35709701
