54
bm_n_n_bis_2_2_methoxyethoxy_ethyl_pyromellitic_diimide conf 7 ff=MMFF E=28.213
C     -5.41017044    -4.54962286     0.28304674
O     -4.51453872    -3.69153641     0.97647753
C     -3.77373070    -2.83792463     0.10436108
C     -4.55974446    -1.58663940    -0.28506954
O     -3.77497529    -0.80462858    -1.18681623
C     -4.40560706     0.42110009    -1.57017266
C     -4.25381958     1.51891657    -0.50920269
N     -2.85941068     1.77171300    -0.19426267
C     -2.01420010     2.46836705    -1.01327055
O     -2.26137578     3.05211042    -2.05037012
C     -0.68321045     2.37796464    -0.41386180
C      0.52349461     2.90255728    -0.84323999
C      1.60352780     2.59200038    -0.03387451
C      3.01555856     2.94151580    -0.18112735
O      3.44606391     3.62880811    -1.08695284
N      3.67055108     2.37259670     0.87799538
C      5.11873469     2.32121148     0.99401021
C      5.64882411     0.91403915     0.69760392
O      5.18368210     0.50699486    -0.58894759
C      5.17381592    -0.90754654    -0.78668404
C      3.98896969    -1.60127154    -0.10133203
O      2.75113381    -1.09943534    -0.62033433
C      1.64042147    -1.81099975    -0.08845187
C      2.82319479     1.66999573     1.68908947
O      3.07415476     1.01188939     2.68099404
C      1.48428097     1.81658226     1.12269950
C      0.27771392     1.29319835     1.55379240
C     -0.80054563     1.59984047     0.74194711
C     -2.20174048     1.20117272     0.86039061
O     -2.62952898     0.49266611     1.75070778
H     -5.91283952    -5.18442324     1.01788876
H     -6.17047988    -3.97458606    -0.25198293
H     -4.86373808    -5.19278524    -0.41346133
H     -2.86672971    -2.53147394     0.63822766
H     -3.43126820    -3.38524465    -0.78257632
H     -5.50132497    -1.86084643    -0.77226592
H     -4.80684164    -1.01700113     0.61675232
H     -3.92089690     0.74193607    -2.49868315
H     -5.46293301     0.24821118    -1.80179214
H     -4.69604359     2.44738476    -0.88671307
H     -4.77183331     1.23733738     0.41268689
H      0.62070275     3.49255276    -1.74664802
H      5.39511691     2.61131839     2.01311458
H      5.55301867     3.03799525     0.28895935
H      5.32038120     0.21937763     1.47621625
H      6.74398035     0.91932531     0.69022942
H      5.09541555    -1.06311988    -1.86791189
H      6.12535203    -1.33608904    -0.45260761
H      4.00503268    -1.43368667     0.97968131
H      4.05143108    -2.67880959    -0.29209216
H      1.68840306    -2.86560903    -0.37601269
H      0.72516112    -1.37874929    -0.50170043
H      1.61128363    -1.71813448     1.00140545
H      0.18812594     0.67948442     2.44176452
