54
bm_n_n_bis_2_2_methoxyethoxy_ethyl_pyromellitic_diimide conf 1 ff=MMFF E=26.527
C     -8.95482628    -1.10679310    -0.43512837
O     -7.58351748    -0.91690211    -0.11011867
C     -6.77149846    -1.98208221    -0.62036842
C     -5.30723907    -1.73852464    -0.24802060
O     -4.62422683    -0.85829990    -1.14939201
C     -5.07503926     0.49878948    -1.16059945
C     -4.77994105     1.26597014     0.13438194
N     -3.35324439     1.33603101     0.40592810
C     -2.49944714     2.16456501    -0.26914264
O     -2.74569589     2.99432490    -1.12264230
C     -1.15477442     1.87172185     0.22378978
C      0.06186272     2.43222785    -0.12646140
C      1.15154796     1.90287158     0.54449692
C      2.57097192     2.24013329     0.43965544
O      2.99936060     3.11089069    -0.29207801
N      3.23006600     1.42231129     1.31624139
C      4.67485442     1.38768676     1.46929945
C      5.29363624     0.14000184     0.83096736
O      5.04649031     0.15749820    -0.57757258
C      5.42001167    -1.05865782    -1.23602652
C      6.93554297    -1.22372194    -1.36974301
O      7.47496066    -1.75469431    -0.15408278
C      8.88661613    -1.90527765    -0.23170238
C      2.37807628     0.58657375     1.98295378
O      2.62556495    -0.25982038     2.81960176
C      1.03252500     0.88683952     1.49691032
C     -0.18398507     0.32556346     1.84641723
C     -1.27355419     0.85493147     1.17537709
C     -2.69249032     0.51541679     1.27801428
O     -3.12457745    -0.33827342     2.02777296
H     -9.52488917    -0.27011936    -0.02260949
H     -9.32819137    -2.03589594     0.00604015
H     -9.09214310    -1.12192056    -1.52058115
H     -6.88539244    -2.03853092    -1.70859637
H     -7.10843051    -2.91946298    -0.16406463
H     -4.77246847    -2.69206665    -0.31188806
H     -5.21385603    -1.37980113     0.78003104
H     -6.13846630     0.54702526    -1.40981458
H     -4.55121874     0.98291352    -1.99269319
H     -5.15322684     2.29104513     0.03105774
H     -5.27899917     0.80423910     0.99101935
H      0.15509744     3.21811412    -0.86654372
H      4.90114076     1.39530442     2.54106471
H      5.09687484     2.28824133     1.01025015
H      4.87064206    -0.76905388     1.27241524
H      6.37214396     0.15991873     1.01305848
H      4.96139395    -1.91222193    -0.72406558
H      4.98765414    -0.99645826    -2.24004408
H      7.15168470    -1.93021335    -2.17874848
H      7.40613422    -0.25819164    -1.58621186
H      9.36648619    -0.93539222    -0.39405693
H      9.24140689    -2.31580439     0.71738757
H      9.15459490    -2.59848327    -1.03478728
H     -0.27600245    -0.46448653     2.58210010
