54
bm_n_n_bis_2_2_methoxyethoxy_ethyl_pyromellitic_diimide conf 0 ff=MMFF E=25.694
C      8.57564394     1.36642496    -0.15975588
O      7.25650410     0.84088615    -0.23194410
C      6.33927495     1.79625139    -0.77654933
C      4.93131863     1.19791759    -0.81788965
O      4.24329838     1.30058087     0.43446760
C      4.73473717     0.39692590     1.42816805
C      3.81022507     0.43488688     2.64919728
N      2.46386931    -0.01067125     2.33148288
C      1.38888012     0.82599211     2.20504267
O      1.30206250     2.02360989     2.39293768
C      0.25745261    -0.00971579     1.80390736
C     -1.05614376     0.34172034     1.54174478
C     -1.87217937    -0.71721243     1.18148415
C     -3.29148987    -0.72938626     0.82839859
O     -3.98734095     0.26667371     0.79292977
N     -3.61665625    -2.03312557     0.56995276
C     -4.91145629    -2.46050759     0.06993393
C     -4.91833785    -2.57405126    -1.46006798
O     -4.56322294    -1.34368808    -2.09766920
C     -5.65494894    -0.42691756    -2.19034457
C     -5.16140269     0.89032984    -2.77833541
O     -6.26712670     1.77798801    -2.94401530
C     -5.84749312     3.04211121    -3.44029135
C     -2.53659217    -2.86463526     0.67547684
O     -2.46305238    -4.05953970     0.46530150
C     -1.40769898    -2.03275100     1.08937543
C     -0.09413991    -2.38429886     1.35024520
C      0.72100826    -1.32517142     1.71242171
C      2.14256992    -1.30982247     2.05267180
O      2.84917479    -2.29882352     2.06327354
H      9.23019690     0.59659941     0.25750557
H      8.93815070     1.63063161    -1.15779109
H      8.60336229     2.24178226     0.49621099
H      6.34978670     2.70317253    -0.16178179
H      6.65925567     2.03691020    -1.79636937
H      4.94285583     0.15318014    -1.14864925
H      4.33156651     1.77065015    -1.53282194
H      5.73420330     0.70965696     1.74438975
H      4.78811065    -0.61682865     1.01630987
H      4.21008061    -0.22602280     3.42589626
H      3.75695011     1.45545399     3.04344756
H     -1.41418608     1.36213764     1.60969539
H     -5.14316016    -3.43923152     0.50411760
H     -5.66528091    -1.74294290     0.40777786
H     -5.89343459    -2.92196651    -1.82017686
H     -4.17445851    -3.31408510    -1.77474468
H     -6.09821536    -0.24193504    -1.20615811
H     -6.43682974    -0.85097350    -2.83144959
H     -4.67997625     0.70989968    -3.74692976
H     -4.41368526     1.33560490    -2.11091272
H     -5.16097645     3.52160099    -2.73584976
H     -5.36822300     2.93033494    -4.41766262
H     -6.72996402     3.67727866    -3.55455877
H      0.26713345    -3.40288886     1.27368292
