54
bm_n_n_bis_2_2_methoxyethoxy_ethyl_pyromellitic_diimide conf 2 ff=MMFF E=26.573
C     -5.86632810     4.25543550    -0.50426430
O     -6.16088604     2.92523344    -0.91071874
C     -5.52465200     1.96875979    -0.06390856
C     -5.87683581     0.56266514    -0.53635901
O     -5.23243213    -0.39285203     0.30524715
C     -5.54223633    -1.73337696    -0.08275431
C     -4.82654156    -2.71277762     0.85187290
N     -3.38092976    -2.61128324     0.74305550
C     -2.67247207    -3.05106096    -0.34027014
O     -3.06840634    -3.62133336    -1.33813708
C     -1.27533807    -2.69508595    -0.09914474
C     -0.15514273    -2.91418287    -0.88298141
C      1.02490905    -2.43206170    -0.34251330
C      2.38529548    -2.46986180    -0.87724831
O      2.68271878    -2.94816152    -1.95442561
N      3.18673026    -1.86786633     0.05212431
C      4.59920171    -1.60470397    -0.15467588
C      4.82430962    -0.42031636    -1.10452283
O      4.16201798     0.76677286    -0.65848569
C      4.86823158     1.48305157     0.35628238
C      5.84363177     2.48674610    -0.25640233
O      6.54911138     3.15946230     0.78510228
C      7.43844993     4.13956789     0.26649885
C      2.47610667    -1.40670642     1.12654612
O      2.86161799    -0.81155572     2.11379026
C      1.08049550    -1.77558479     0.89085098
C     -0.04035228    -1.55529296     1.67340624
C     -1.22054959    -2.03895950     1.13407283
C     -2.58295858    -1.99031372     1.66470248
O     -2.86747826    -1.49328713     2.73655799
H     -6.23016589     4.43498751     0.51200897
H     -6.37548242     4.94374430    -1.18414514
H     -4.78963017     4.44309808    -0.55850037
H     -4.43713358     2.10792036    -0.09011918
H     -5.85430081     2.10533031     0.97309904
H     -5.55240597     0.42690129    -1.57497850
H     -6.96374682     0.42118460    -0.50380302
H     -5.23432633    -1.89194129    -1.12234055
H     -6.62442461    -1.88869634    -0.00721457
H     -5.11411095    -2.51525378     1.89013306
H     -5.11364688    -3.73703538     0.59053895
H     -0.19885826    -3.41752367    -1.84140848
H      5.06089104    -1.41071891     0.81831979
H      5.05802532    -2.50203126    -0.58414239
H      4.40565509    -0.65766144    -2.08854313
H      5.89505672    -0.23731161    -1.24551031
H      5.38036582     0.80900754     1.05166597
H      4.12614676     2.02773283     0.95092123
H      6.55708327     1.97502426    -0.91192760
H      5.29066205     3.21000694    -0.86786202
H      7.95198887     4.61686746     1.10536307
H      6.88491954     4.90512298    -0.28569804
H      8.18648042     3.67331272    -0.38193773
H      0.00166971    -1.04313719     2.62739649
