54
bm_n_n_bis_2_2_methoxyethoxy_ethyl_pyromellitic_diimide conf 9 ff=MMFF E=28.819
C      8.42098489     0.68610448    -2.44349521
O      7.03221729     0.64039837    -2.14219926
C      6.55290925    -0.70743865    -2.07644363
C      5.06214128    -0.71117398    -1.73061303
O      4.81418175    -0.58961461    -0.32493141
C      5.05743264     0.72488667     0.18331919
C      4.56976252     0.80550887     1.63340786
N      3.13640785     0.59154780     1.74221670
C      2.56632101    -0.55951800     2.21301565
O      3.08280921    -1.55278527     2.68606788
C      1.11956217    -0.39127791     2.07868477
C      0.09132657    -1.25976743     2.40498002
C     -1.17703797    -0.77075694     2.14247586
C     -2.48374353    -1.39624578     2.34167617
O     -2.64490318    -2.52044298     2.77470236
N     -3.41848576    -0.48438187     1.93701423
C     -4.84049347    -0.76841245     1.87059145
C     -5.19421044    -1.61971972     0.64324150
O     -4.74650341    -1.02611315    -0.57957932
C     -5.59099898     0.01882370    -1.06580395
C     -6.69294162    -0.53800749    -1.97015384
O     -7.62781904     0.46223312    -2.37365192
C     -7.12844702     1.31275766    -3.39744811
C     -2.84752510     0.65973217     1.45005600
O     -3.37323859     1.65158453     0.98312318
C     -1.40116886     0.49483805     1.59165395
C     -0.37309430     1.36273639     1.26445874
C      0.89515072     0.87413745     1.52905314
C      2.20193071     1.49356575     1.31574116
O      2.35926601     2.60173039     0.84162614
H      8.99866021     0.18225787    -1.66263634
H      8.61762055     0.22476143    -3.41601124
H      8.72962493     1.73405925    -2.48485561
H      7.12085500    -1.25979181    -1.31954099
H      6.69679069    -1.17137354    -3.05848125
H      4.51721368     0.07114068    -2.27102649
H      4.64035031    -1.67837559    -2.02295621
H      6.13215527     0.92868739     0.17057698
H      4.54295443     1.46593051    -0.43825060
H      5.08290919     0.05192290     2.24054731
H      4.79431908     1.79941646     2.03548253
H      0.26659211    -2.24211169     2.82727923
H     -5.38076756     0.18292414     1.84836428
H     -5.12852166    -1.30941625     2.77862105
H     -6.27135121    -1.81502607     0.60707667
H     -4.69247390    -2.59065923     0.71767881
H     -6.01597530     0.61637295    -0.25228946
H     -4.95368933     0.69646611    -1.64289220
H     -6.26582490    -1.04661053    -2.84311906
H     -7.26022873    -1.30133415    -1.42743078
H     -6.29512041     1.91772125    -3.03064098
H     -6.81844522     0.72829929    -4.26897583
H     -7.93280106     1.98816560    -3.70170612
H     -0.54663879     2.34164383     0.83379000
