54
bm_n_n_bis_2_2_methoxyethoxy_ethyl_pyromellitic_diimide conf 4 ff=MMFF E=26.883
C      2.23464632     1.81683899    -0.32122260
O      3.05085148     0.82801362    -0.93646046
C      4.43989007     1.16801088    -0.84550995
C      5.28933123     0.14405008    -1.61005711
O      5.15440472    -1.18396155    -1.10167510
C      5.88474333    -1.42614496     0.10051470
C      5.26493442    -2.62620830     0.82456036
N      3.84522347    -2.42265109     1.06196371
C      2.86038217    -3.05205322     0.34903878
O      2.93736286    -3.96799173    -0.44679735
C      1.59861852    -2.42428523     0.73824411
C      0.30892095    -2.68051789     0.30382369
C     -0.65844281    -1.86946423     0.87168283
C     -2.10299314    -1.83327109     0.64946655
O     -2.69436720    -2.57119142    -0.11428491
N     -2.59616872    -0.83703037     1.44601296
C     -3.99105687    -0.42985639     1.45278569
C     -4.38389405     0.30570804     0.16749679
O     -3.62093195     1.51096738     0.05890949
C     -3.77334495     2.16708713    -1.20554703
C     -5.13154510     2.85502009    -1.36114318
O     -6.11533154     1.89953071    -1.77270539
C     -7.39772198     2.49734244    -1.91206340
C     -1.61252388    -0.21660898     2.16578336
O     -1.68385891     0.69080538     2.97146787
C     -0.35763189    -0.87546632     1.80715916
C      0.93072522    -0.62340211     2.24651431
C      1.89800430    -1.43262003     1.67626695
C      3.34738133    -1.43202255     1.86226165
O      3.94044462    -0.65464328     2.58614801
H      1.19105430     1.50178790    -0.40457632
H      2.35008763     2.77874324    -0.82976241
H      2.48694625     1.91790911     0.73867696
H      4.59886223     2.15925244    -1.28539773
H      4.72066661     1.20285746     0.21131427
H      6.34566857     0.43527457    -1.61281672
H      4.94689449     0.10830252    -2.64969637
H      6.92687111    -1.64151936    -0.15845409
H      5.87453262    -0.54934674     0.75450421
H      5.39383887    -3.53110901     0.22121439
H      5.76034823    -2.76867698     1.79069911
H      0.07994726    -3.44327274    -0.43065902
H     -4.16171146     0.21845100     2.31904462
H     -4.60554450    -1.33078899     1.55594056
H     -5.44837626     0.55160473     0.22404532
H     -4.20687885    -0.32800275    -0.70844720
H     -2.99086218     2.93229513    -1.23804421
H     -3.58231898     1.45555572    -2.01687150
H     -5.43912635     3.30919309    -0.41262720
H     -5.05824489     3.62759079    -2.13451504
H     -7.37331839     3.28412217    -2.67210965
H     -7.73492586     2.90695139    -0.95507643
H     -8.10412865     1.72591754    -2.22998051
H      1.16366615     0.15292379     2.96495194
