54
bm_n_n_bis_2_2_methoxyethoxy_ethyl_pyromellitic_diimide conf 8 ff=MMFF E=28.345
C     -7.74015609     1.52246058     2.55263927
O     -6.35999626     1.19158747     2.53358647
C     -6.05537275     0.05263154     1.72091399
C     -6.08692468     0.35113288     0.21836224
O     -5.04072963     1.27103603    -0.10774097
C     -4.90475008     1.51298881    -1.50941140
C     -4.13625924     0.39331588    -2.22410740
N     -2.85473124     0.13637651    -1.59216123
C     -1.76333723     0.94573675    -1.74428368
O     -1.61835014     1.91201199    -2.46728685
C     -0.73916712     0.44156202    -0.83040535
C      0.55039322     0.89276652    -0.60595558
C      1.24910721     0.17707957     0.35162810
C      2.61643437     0.35253161     0.84025511
O      3.37784665     1.20372682     0.42383798
N      2.81199675    -0.60282322     1.80005478
C      4.08583744    -0.84367117     2.45456294
C      4.88200838    -1.95267451     1.75449445
O      5.12547203    -1.65944607     0.37555494
C      6.23413374    -0.78004510     0.17905137
C      6.35319732    -0.43857734    -1.30205308
O      7.50762481     0.37543325    -1.50843993
C      7.63185239     0.76399780    -2.87000088
C      1.72250517    -1.41550989     1.94802154
O      1.58123151    -2.38933211     2.66157085
C      0.69766683    -0.91062651     1.03558947
C     -0.59192691    -1.36187025     0.81136818
C     -1.29067513    -0.64611653    -0.14604478
C     -2.65786000    -0.82161391    -0.63479279
O     -3.41965948    -1.67686469    -0.22563883
H     -8.34044738     0.66519833     2.87196913
H     -8.07309320     1.87362054     1.57275634
H     -7.88636463     2.33335932     3.27161512
H     -5.04356762    -0.25973069     2.00109230
H     -6.73846555    -0.76798043     1.96750172
H     -5.94595614    -0.58547881    -0.32892467
H     -7.04379414     0.79040872    -0.07841070
H     -4.35094268     2.45289374    -1.60922366
H     -5.88824172     1.66659543    -1.96806828
H     -4.71670750    -0.53446626    -2.21705794
H     -3.96010208     0.68368792    -3.26558948
H      0.97727571     1.73676985    -1.13444773
H      3.89039711    -1.14083708     3.49071503
H      4.65173568     0.09280497     2.46217313
H      5.82738699    -2.14154328     2.27616341
H      4.30782380    -2.88528668     1.77801203
H      7.15422591    -1.26659621     0.52385283
H      6.11150048     0.14273165     0.75590776
H      5.45137343     0.09069190    -1.63278727
H      6.43601179    -1.35919668    -1.89206152
H      7.73336814    -0.11625196    -3.51210806
H      8.53146577     1.37673629    -2.97245725
H      6.76702596     1.35896577    -3.17909635
H     -1.01931997    -2.20430110     1.34184949
