28
methyl_viologen/ox1 q=1 m=2 E=-15645.024655eV conf=3 model=uma-s-1p2p1
C        4.98369134      -0.03957982       0.19748718      -0.00438599       0.00044043      -0.00376057
N        3.52334340      -0.03491642       0.10014532       0.00260991      -0.00893408      -0.00257675
C        2.83592266      -1.14427114      -0.27620662      -0.00074322      -0.01047452       0.00145602
C        1.48049003      -1.16096123      -0.34210079       0.00663172       0.00424557       0.00265542
C        0.70838282      -0.00881097      -0.01085538      -0.00650297       0.00000454      -0.00423346
C       -0.70836127       0.00897245      -0.07275664       0.00631403      -0.00493548      -0.00007473
C       -1.46865275      -1.09949310      -0.55185053       0.00382182       0.00248271       0.01073192
C       -2.82210200      -1.05248046      -0.60980905       0.00823497       0.00307644      -0.00853265
N       -3.52201457       0.04472063      -0.21079821      -0.00306185      -0.00127493      -0.01024261
C       -4.98481339       0.03128831      -0.25738786       0.00437953      -0.00444549       0.00063419
C       -2.83905668       1.12111762       0.25798419      -0.00078014       0.00074519      -0.00913259
C       -1.48406961       1.13445404       0.33333220      -0.00497360       0.00328604       0.00407343
C        1.47271378       1.12954739       0.38438128      -0.00445079       0.01122655       0.00290894
C        2.82697754       1.08855165       0.42547626      -0.00739420      -0.00942467       0.00373590
H        5.36335433      -0.97924031      -0.19183964      -0.00747717      -0.00128479       0.00485106
H        5.39646661       0.78043509      -0.38667547      -0.01037638       0.01381619       0.00417372
H        5.28908739       0.06322101       1.23725158      -0.01116325       0.00188833      -0.00559905
H        3.43167835      -2.01165751      -0.51977431      -0.00380414      -0.00215064      -0.00461684
H        1.01718475      -2.08580126      -0.64647832       0.00709814       0.00773048      -0.00097397
H       -0.99120987      -2.00306909      -0.89620202       0.00881386      -0.00242167      -0.00196854
H       -3.41190158      -1.88050656      -0.97662246      -0.00419456       0.00043680       0.00035693
H       -5.37451128      -0.69548449       0.45315975       0.00732942       0.00458251      -0.00155328
H       -5.35828024       1.01680166       0.00332028       0.01098846      -0.00605818       0.00157770
H       -5.32113070      -0.22285650      -1.26056035       0.01125591       0.00368516       0.01351611
H       -3.43795668       1.96520892       0.56693850       0.00386478      -0.00413978      -0.00303241
H       -1.02483068       2.02923560       0.72200097      -0.00715342      -0.00109774       0.00786886
H        0.99913416       2.06169726       0.64857846      -0.00872008      -0.00160906      -0.00222760
H        3.42046458       1.94387710       0.71567660       0.00383922       0.00060409      -0.00001512
