50
conf 3 ff=MMFF E=11.528 Rg=4.77 smiles=CN1C(=O)c2ccc3c4c(ccc(c24)C1=O)C(=O)N(CCC[N+](C)(C)C)C3=O
C      7.27893771     0.85571626    -0.98944405
N      5.90023402     0.61595556    -0.59886014
C      5.49251197    -0.70991737    -0.47320759
O      6.21956155    -1.67783905    -0.67401495
C      4.08748956    -0.94254351    -0.06369123
C      3.60473170    -2.25437870     0.02974008
C      2.28467113    -2.48778228     0.41042405
C      1.44311350    -1.40892665     0.70317897
C      1.91078618    -0.09135113     0.61553684
C      1.07639039     0.99791723     0.89803551
C      1.55359595     2.30957993     0.80232284
C      2.87453644     2.53992515     0.42308930
C      3.72120270     1.46161872     0.13333924
C      3.25483052     0.14519769     0.22350894
C      5.12136802     1.72375688    -0.27492804
O      5.52155288     2.88349454    -0.30341348
C     -0.32896122     0.76031647     1.29881467
O     -1.11394942     1.70192872     1.38182069
N     -0.71504211    -0.56177275     1.50188084
C     -2.05192667    -0.81505894     2.03535025
C     -3.12660033    -1.04446344     0.96208725
C     -3.45850820     0.23272390     0.19055607
N     -4.63935406     0.07466045    -0.79414403
C     -5.94378154    -0.22448721    -0.06527128
C     -4.80197567     1.41118704    -1.52921164
C     -4.36800677    -1.01014788    -1.82895197
C      0.04414763    -1.66614168     1.11613923
O     -0.40774737    -2.80617136     1.07143490
H      7.38609106     1.82658469    -1.48191465
H      7.63317480     0.07477002    -1.66889122
H      7.89658710     0.84565603    -0.08582464
H      4.25740286    -3.09891171    -0.19236515
H      1.92249432    -3.51280010     0.48343525
H      0.90745367     3.15685518     1.02805106
H      3.24411615     3.56332081     0.35475707
H     -2.34857152     0.01303503     2.69029016
H     -1.99842652    -1.70962604     2.66850030
H     -2.79517557    -1.82997003     0.27543856
H     -4.01943977    -1.41675620     1.47431862
H     -3.73124146     1.04394313     0.87543221
H     -2.60249772     0.54734449    -0.41589419
H     -6.08765145     0.53089679     0.71245185
H     -6.76164958    -0.18628707    -0.79143244
H     -5.88782579    -1.22498679     0.36999659
H     -5.63825866     1.32355341    -2.22931299
H     -3.87449687     1.62368342    -2.06925753
H     -5.00438815     2.19024795    -0.78821605
H     -3.40113225    -0.80686073    -2.29807132
H     -4.36186770    -1.98262021    -1.33025935
H     -5.16850542    -0.98406866    -2.57462737
