50
conf 2 ff=MMFF E=11.528 Rg=4.77 smiles=CN1C(=O)c2ccc3c4c(ccc(c24)C1=O)C(=O)N(CCC[N+](C)(C)C)C3=O
C      7.19723004    -0.72099483    -1.79299478
N      5.84638640    -0.45606942    -1.32834355
C      5.19182109    -1.47373955    -0.63937327
O      5.67858112    -2.57574931    -0.40572746
C      3.81955095    -1.18362935    -0.16128120
C      3.09215782    -2.18568073     0.49471856
C      1.79832838    -1.92989556     0.94454076
C      1.22932565    -0.66763171     0.74386519
C      1.94434683     0.34628524     0.09329279
C      1.38357980     1.61254395    -0.11773586
C      2.10557855     2.61404772    -0.77619019
C      3.39864307     2.35488522    -1.22649728
C      3.97338323     1.09335880    -1.02420865
C      3.26040328     0.08227023    -0.36972751
C      5.34801001     0.83153516    -1.51181111
O      5.97378665     1.74533188    -2.04018261
C      0.01332929     1.89925053     0.36601411
O     -0.53002626     2.95985777     0.07317917
N     -0.61620166     0.90260501     1.11112127
C     -1.91326253     1.22131302     1.70446939
C     -3.09838221     1.09629307     0.73529183
C     -3.39828849    -0.35725944     0.36940583
N     -4.67482520    -0.53240658    -0.48428809
C     -4.79859978    -2.02441455    -0.81845159
C     -5.92505572    -0.11511113     0.28060633
C     -4.58856122     0.24481162    -1.79186445
C     -0.14683988    -0.40340373     1.22182246
O     -0.84322152    -1.32673837     1.63683514
H      7.89387159    -0.43521324    -0.99855199
H      7.33477342    -1.78196247    -2.02108278
H      7.42315622    -0.13556196    -2.68922863
H      3.53397425    -3.16896072     0.65767762
H      1.24557842    -2.71679167     1.45599983
H      1.67141699     3.60053386    -0.93591806
H      3.95842957     3.14046142    -1.73448882
H     -1.87215318     2.25524456     2.06955454
H     -2.08056420     0.58691150     2.58323498
H     -3.96620830     1.54658941     1.22748724
H     -2.89614003     1.68297585    -0.16651233
H     -3.54040139    -0.96611321     1.26974821
H     -2.58040880    -0.77947710    -0.22416546
H     -4.86824128    -2.58355019     0.11936429
H     -5.70097042    -2.17256105    -1.41925921
H     -3.91170872    -2.32681829    -1.38324968
H     -5.93504205    -0.63853234     1.24085987
H     -6.80157825    -0.39033120    -0.31406950
H     -5.90843337     0.96730259     0.42788991
H     -5.45063417    -0.02312984    -2.41036873
H     -3.65667695    -0.02753319    -2.29551605
H     -4.61321704     1.31485232    -1.57086906
