50
conf 7 ff=MMFF E=12.178 Rg=5.06 smiles=CN1C(=O)c2ccc3c4c(ccc(c24)C1=O)C(=O)N(CCC[N+](C)(C)C)C3=O
C     -7.76279960     0.65779292     0.25871079
N     -6.34440248     0.36639576     0.14382409
C     -5.70303933     0.75615820    -1.02918871
O     -6.25623967     1.33490916    -1.95932569
C     -4.25526395     0.45730608    -1.13152199
C     -3.56758233     0.77567521    -2.30994298
C     -2.20551535     0.50296278    -2.41940603
C     -1.52654990    -0.09106488    -1.34990878
C     -2.19907759    -0.41341682    -0.16340019
C     -1.52802725    -0.99376846     0.92144552
C     -2.20845942    -1.29563766     2.10617088
C     -3.57052445    -1.02157751     2.21223970
C     -4.25673923    -0.44387315     1.13599270
C     -3.58659830    -0.13337455    -0.05300555
C     -5.70453192    -0.15565894     1.26509347
O     -6.25903514    -0.37303054     2.33813293
C     -0.08034280    -1.28823402     0.81662494
O      0.54419696    -1.67174546     1.80217986
N      0.51893327    -1.06914030    -0.42223638
C      1.93313913    -1.40041414    -0.55297479
C      2.83218226    -0.24606004    -0.09361927
C      4.30039461    -0.63178071    -0.24595739
N      5.28191033     0.47260811     0.19359727
C      6.70497783    -0.05744590    -0.01612950
C      5.11609176     0.81456819     1.67108112
C      5.11760654     1.73554568    -0.64627393
C     -0.07885332    -0.37779828    -1.47419102
O      0.54696351     0.01955440    -2.45343228
H     -8.25365365    -0.04810802     0.93520380
H     -7.87289365     1.66987412     0.66086180
H     -8.25257943     0.60904355    -0.71833412
H     -4.09262145     1.23675282    -3.14662284
H     -1.68223407     0.75324453    -3.34141448
H     -1.68632644    -1.74676950     2.94903549
H     -4.09670933    -1.26038109     3.13657412
H      2.14714063    -2.29876456     0.03870026
H      2.14820495    -1.64763869    -1.59965331
H      2.59974903    -0.00504636     0.94868399
H      2.60081525     0.64477724    -0.68639874
H      4.53129418    -0.85943935    -1.29364403
H      4.53021580    -1.51660254     0.35989986
H      6.83191276    -0.95603299     0.59492710
H      7.41430439     0.71658495     0.29195053
H      6.83300424    -0.29150902    -1.07715980
H      4.15022561     1.30439947     1.81657594
H      5.92100490     1.49763541     1.95936464
H      5.17476290    -0.11194880     2.24923537
H      5.92253761     2.42979426    -0.38612325
H      5.17734657     1.45862570    -1.70262877
H      4.15168503     2.19205375    -0.41693138
