50
conf 0 ff=MMFF E=11.441 Rg=4.77 smiles=CN1C(=O)c2ccc3c4c(ccc(c24)C1=O)C(=O)N(CCC[N+](C)(C)C)C3=O
C      7.28686249    -0.38832179    -1.20830024
N      5.92269093    -0.25315131    -0.72773026
C      5.41706294     1.03729597    -0.59143000
O      6.04350057     2.05683619    -0.86326665
C      4.02324462     1.16184119    -0.10384144
C      3.47840017     2.43465656     0.10973663
C      2.16813206     2.56625711     0.56567931
C      1.39760433     1.42408021     0.81005426
C      1.92666570     0.14435917     0.59833301
C      1.16062081    -1.00688564     0.82274781
C      1.69595773    -2.27928876     0.59488601
C      3.00715475    -2.40785872     0.14100853
C      3.78678856    -1.26638980    -0.08821412
C      3.26168703     0.01176002     0.13358994
C      5.17745220    -1.41944084    -0.57634896
O      5.59294903    -2.54465911    -0.83565450
C     -0.23543597    -0.87715745     1.29842523
O     -0.96798285    -1.86289983     1.33599327
N     -0.67758419     0.40217645     1.62421383
C     -2.00119321     0.54060041     2.22835440
C     -3.13100547     0.79815634     1.21998469
C     -3.43033457    -0.42798237     0.35762795
N     -4.65710893    -0.25341829    -0.56622218
C     -4.78357135    -1.53301769    -1.40274256
C     -4.48249390     0.92403294    -1.51727925
C     -5.94358704    -0.08301098     0.23258230
C      0.00771015     1.57267638     1.29988129
O     -0.50176319     2.68699829     1.36769826
H      7.26653878    -0.38346556    -2.30270487
H      7.90706804     0.44348829    -0.86133639
H      7.73141453    -1.32734212    -0.86559849
H      4.07518090     3.32784396    -0.07626695
H      1.75763040     3.56159303     0.73289633
H      1.10245240    -3.17501697     0.77308319
H      3.42185891    -3.40112146    -0.03226361
H     -1.96500775     1.38302618     2.93048818
H     -2.22801203    -0.35196531     2.82379569
H     -2.86939480     1.65375541     0.58924406
H     -4.01894498     1.07868938     1.79533509
H     -3.63381727    -1.30540156     0.98232731
H     -2.58546460    -0.64654457    -0.30413906
H     -4.91661249    -2.37886402    -0.72169619
H     -3.86970873    -1.65218004    -1.99238332
H     -5.65124363    -1.43332198    -2.06182945
H     -5.31067390     0.91597013    -2.23251612
H     -4.50403360     1.85214203    -0.94058621
H     -3.52682722     0.81041126    -2.03692826
H     -6.78776523    -0.10547303    -0.46350264
H     -6.01785441    -0.90515751     0.95001960
H     -5.91920670     0.88068985     0.74666927
