50
conf 1 ff=MMFF E=11.528 Rg=4.77 smiles=CN1C(=O)c2ccc3c4c(ccc(c24)C1=O)C(=O)N(CCC[N+](C)(C)C)C3=O
C      7.25540100    -1.37209016     0.48675891
N      5.88681119    -0.90995795     0.33100067
C      5.16489529    -0.63478501     1.48940706
O      5.60682571    -0.76221657     2.62712844
C      3.77480118    -0.15256222     1.31344937
C      2.98261112     0.09339498     2.44282246
C      1.67155360     0.54120693     2.29331182
C      1.14991549     0.74960353     1.01198065
C      1.92975602     0.51215256    -0.12731440
C      1.41706404     0.71254287    -1.41548936
C      2.20400332     0.46383662    -2.54541232
C      3.51423494     0.01439664    -2.39291878
C      4.04152145    -0.19196267    -1.11148182
C      3.26356027     0.05021238     0.02654881
C      5.43530097    -0.67351616    -0.96522412
O      6.11606597    -0.83388122    -1.97350931
C      0.02855527     1.19904223    -1.58626100
O     -0.46742193     1.25420899    -2.70734907
N     -0.67117436     1.53526997    -0.42775960
C     -1.99234990     2.13908291    -0.58872202
C     -3.12025021     1.12928039    -0.84868963
C     -3.43688687     0.28251704     0.38393506
N     -4.66427652    -0.63982526     0.20556762
C     -4.80809929    -1.46132992     1.49301427
C     -5.94633205     0.16069782     0.01121685
C     -4.47888892    -1.60460236    -0.95895045
C     -0.24475668     1.22281996     0.86016791
O     -0.98944340     1.27000352     1.83635697
H      7.55032319    -2.00777171    -0.35344309
H      7.91068947    -0.49577165     0.51474064
H      7.37763697    -1.93659291     1.41573133
H      3.38713713    -0.06276652     3.44310709
H      1.06810055     0.73175874     3.17980087
H      1.80700886     0.62447773    -3.54728756
H      4.12446592    -0.17300409    -3.27668648
H     -1.94524499     2.83184911    -1.43833819
H     -2.22906158     2.74463800     0.29442838
H     -2.84858377     0.48767490    -1.69301724
H     -4.00350438     1.70247880    -1.14777289
H     -3.64906630     0.91814548     1.25138623
H     -2.59664122    -0.37897326     0.62045018
H     -5.67654576    -2.11899932     1.39072938
H     -3.89747542    -2.05222950     1.62947898
H     -4.94886426    -0.77031512     2.32947373
H     -6.02794933     0.88764196     0.82426504
H     -5.90930876     0.66371734    -0.95790109
H     -6.79278774    -0.53267552     0.03179169
H     -3.52621969    -2.12575467    -0.82831281
H     -4.48780169    -1.03835877    -1.89368155
H     -5.30930390    -2.31725904    -0.95252766
