50
conf 8 ff=MMFF E=12.229 Rg=5.06 smiles=CN1C(=O)c2ccc3c4c(ccc(c24)C1=O)C(=O)N(CCC[N+](C)(C)C)C3=O
C      7.69328977    -1.08768421    -0.64162718
N      6.28582452    -0.79499567    -0.43250844
C      5.76525475     0.33356904    -1.06082468
O      6.41748655     1.08938266    -1.77459758
C      4.33083164     0.62606346    -0.83120328
C      3.73750398     1.71646645    -1.48084900
C      2.38875956     2.00141708    -1.27773472
C      1.62957416     1.19878836    -0.41923892
C      2.20814087     0.10551034     0.23954733
C      1.45759447    -0.71100938     1.09626854
C      2.04608735    -1.80388508     1.74193810
C      3.39508631    -2.08600934     1.53658109
C      4.15913368    -1.28060607     0.68182200
C      3.58129473    -0.18659599     0.02726898
C      5.59147934    -1.59616998     0.47050707
O      6.09185432    -2.52669232     1.09491496
C      0.02408482    -0.41563280     1.32269292
O     -0.67391335    -1.19897329     1.96114618
N     -0.47720068     0.75045174     0.74755108
C     -1.87440838     1.08001159     1.00429771
C     -2.81487256     0.38015998     0.01564201
C     -4.26366295     0.75063074     0.31808954
N     -5.28477684     0.09063270    -0.62949618
C     -5.06352115     0.51747465    -2.07731368
C     -5.23898885    -1.43105689    -0.53106886
C     -6.68292833     0.55387093    -0.20439932
C      0.19753701     1.51051654    -0.20578990
O     -0.35169674     2.37917243    -0.87826700
H      8.01644375    -0.76807477    -1.63673969
H      8.27126658    -0.54235723     0.11116102
H      7.89126460    -2.15818340    -0.53362162
H      4.32578322     2.34707380    -2.14760646
H      1.93907874     2.85250621    -1.78763247
H      1.46277511    -2.43674468     2.40961826
H      3.85001310    -2.93625248     2.04494298
H     -2.12842799     0.78945898     2.03093045
H     -2.00437638     2.16702764     0.93776957
H     -2.66735126    -0.70225770     0.08715754
H     -2.54354372     0.67259816    -1.00385081
H     -4.40923084     1.83425886     0.23232943
H     -4.53443386     0.44390660     1.33563468
H     -5.03746599     1.61017385    -2.11564112
H     -4.12206602     0.09232319    -2.43355941
H     -5.89145036     0.13262419    -2.68063525
H     -6.06904673    -1.83954302    -1.11563424
H     -4.29119155    -1.78577864    -0.94320399
H     -5.33669428    -1.71269612     0.52120127
H     -6.72480930     1.64406050    -0.28622241
H     -6.85141704     0.23810875     0.82946148
H     -7.41996778     0.09295964    -0.86886525
