50
conf 6 ff=MMFF E=12.178 Rg=5.06 smiles=CN1C(=O)c2ccc3c4c(ccc(c24)C1=O)C(=O)N(CCC[N+](C)(C)C)C3=O
C     -7.74028950     0.76270454    -0.56544725
N     -6.32914752     0.52707689    -0.31421092
C     -5.63004640     1.50809822     0.38441311
O     -6.12696284     2.55504908     0.78827715
C     -4.19030178     1.25752772     0.62974571
C     -3.44714251     2.18234843     1.37497172
C     -2.09183413     1.96125745     1.61127370
C     -1.47523124     0.81243645     1.10363370
C     -2.20370480    -0.12116875     0.35415751
C     -1.59514026    -1.26783200    -0.17387616
C     -2.33074792    -2.18358987    -0.93411040
C     -3.68587739    -1.95939109    -1.16850272
C     -4.31000850    -0.81922531    -0.64560385
C     -3.58422207     0.10650680     0.11299308
C     -5.75116669    -0.59317132    -0.90599017
O     -6.35383524    -1.38087567    -1.62879761
C     -0.15524102    -1.51339924     0.07081640
O      0.41736095    -2.44089392    -0.49516083
N      0.49862218    -0.62740812     0.92486202
C      1.90484876    -0.88524072     1.21272020
C      2.82385866    -0.28167587     0.14363191
C      4.28301941    -0.57285810     0.48082276
N      5.28347639    -0.00155893    -0.54336450
C      6.69490470    -0.37161339    -0.07326412
C      5.07218954    -0.60320308    -1.92928408
C      5.19453057     1.51918722    -0.62589249
C     -0.03430486     0.58469224     1.35927258
O      0.64202177     1.45669603     1.89838378
H     -7.83166336     1.33735247    -1.49258511
H     -8.28051654    -0.18185034    -0.67879375
H     -8.19322495     1.33256099     0.25124728
H     -3.92352546     3.07786747     1.77421692
H     -1.52508714     2.68653746     2.19379449
H     -1.85717173    -3.07470670    -1.34423243
H     -4.25522763    -2.67673554    -1.75972948
H      2.06534080    -1.96841942     1.27497297
H      2.15183194    -0.46790067     2.19645582
H      2.55949227    -0.70049633    -0.83269229
H      2.64581273     0.79702521     0.08695192
H      4.54651214    -0.14006189     1.45347335
H      4.45921744    -1.65449018     0.52344205
H      6.76768523    -1.46219935    -0.02544072
H      6.85596180     0.06921116     0.91501524
H      7.41747809     0.02770500    -0.79132670
H      5.88791890    -0.26960224    -2.57802884
H      4.11848813    -0.24987616    -2.32880269
H      5.07713454    -1.69302811    -1.83765664
H      4.23640242     1.79572494    -1.07256790
H      6.01174450     1.87855021    -1.25881686
H      5.28576762     1.92635635     0.38506153
