50
conf 4 ff=MMFF E=11.528 Rg=4.77 smiles=CN1C(=O)c2ccc3c4c(ccc(c24)C1=O)C(=O)N(CCC[N+](C)(C)C)C3=O
C      7.31866073     0.42004240     1.00753616
N      5.92747353     0.25231854     0.62369775
C      5.43181693    -1.04813209     0.56786188
O      6.09198368    -2.05025153     0.82424700
C      4.01487281    -1.20801050     0.16460657
C      3.44525014    -2.48770244     0.13981886
C      2.11298663    -2.65248145    -0.23418549
C      1.34613627    -1.53715947    -0.58894106
C      1.90110079    -0.25105231    -0.57031933
C      1.14208219     0.87472020    -0.91536219
C      1.70615060     2.15473594    -0.88831483
C      3.03908799     2.31633049    -0.51558720
C      3.81107596     1.20105069    -0.16383571
C      3.25749023    -0.08413065    -0.18503863
C      5.22515626     1.39058922     0.23655601
O      5.70226329     2.52075727     0.20430850
C     -0.27553538     0.71038149    -1.30962724
O     -0.99542709     1.69655875    -1.44725138
N     -0.74924696    -0.59194767    -1.44285749
C     -2.09943452    -0.78369640    -1.96843290
C     -3.18846179    -0.88206226    -0.88964322
C     -3.43486675     0.45445065    -0.18989452
N     -4.62492351     0.42946574     0.79608565
C     -4.69839456     1.81178276     1.45705113
C     -4.42834540    -0.61334652     1.88932171
C     -5.94555482     0.17924760     0.07803287
C     -0.06641187    -1.72212753    -0.99427528
O     -0.59388507    -2.82522649    -0.89025748
H      7.49011575     1.40682784     1.44736889
H      7.61880236    -0.34487902     1.72990664
H      7.93539944     0.31966524     0.10882715
H      4.03946305    -3.36075582     0.41043867
H      1.68290257    -3.65339068    -0.25348648
H      1.11864105     3.02988759    -1.16266950
H      3.47645477     3.31487435    -0.50083333
H     -2.10530177    -1.71286093    -2.55205123
H     -2.33897285     0.02565808    -2.66861185
H     -2.91140207    -1.64959494    -0.15993042
H     -4.10362244    -1.22096428    -1.38539666
H     -3.65164406     1.24376629    -0.91893772
H     -2.56044474     0.74347209     0.40287403
H     -5.53957074     1.81845288     2.15674300
H     -3.75943585     1.99067350     1.98938128
H     -4.84709909     2.56130579     0.67405502
H     -5.22624609    -0.49331262     2.62854871
H     -4.48686183    -1.60966226     1.44394027
H     -3.45060919    -0.45011472     2.35152569
H     -5.95633463    -0.84488688    -0.30225795
H     -6.03738970     0.89927058    -0.74006853
H     -6.75994427     0.31146349     0.79703656
