50
conf 9 ff=MMFF E=12.229 Rg=5.06 smiles=CN1C(=O)c2ccc3c4c(ccc(c24)C1=O)C(=O)N(CCC[N+](C)(C)C)C3=O
C      7.75945167     0.52010539     0.33437714
N      6.33019326     0.35599061     0.13277721
C      5.66280263     1.35565084    -0.57057306
O      6.20389274     2.35844058    -1.02638718
C      4.20716611     1.17100801    -0.77764355
C      3.47198628     2.16955715    -1.42992122
C      2.10184649     2.01165016    -1.62827968
C      1.46289202     0.85088379    -1.17889237
C      2.18393819    -0.15814407    -0.52624333
C      1.55525350    -1.32241764    -0.06448777
C      2.28587814    -2.31868740     0.59218909
C      3.65588131    -2.15756430     0.78889791
C      4.29937630    -0.99873386     0.33493529
C      3.57903178     0.00679250    -0.32021048
C      5.75612853    -0.84034367     0.55546685
O      6.37877328    -1.75656184     1.08366181
C      0.10011090    -1.50290880    -0.27293056
O     -0.48421531    -2.45153815     0.24389763
N     -0.55192979    -0.53493507    -1.03430983
C     -1.97480554    -0.72656021    -1.29008790
C     -2.83723907    -0.17719229    -0.14723686
C     -4.31561744    -0.39704731    -0.45346849
N     -5.26233617     0.12592907     0.64489798
C     -5.12012718     1.63265328     0.83694644
C     -5.02589349    -0.58472639     1.97395313
C     -6.69997343    -0.16404753     0.19853778
C      0.00695863     0.68900028    -1.39687666
O     -0.65726129     1.62030054    -1.84402076
H      8.27756084     0.09767475    -0.53236609
H      8.09088205    -0.00401770     1.23564093
H      8.02365790     1.57788862     0.42447259
H      3.96599684     3.07395518    -1.78533837
H      1.54129266     2.79451683    -2.13765228
H      1.79709087    -3.22451671     0.94873010
H      4.22150873    -2.93833677     1.29758591
H     -2.17351255    -1.79647775    -1.42688566
H     -2.24013447    -0.22883913    -2.23072380
H     -2.55498466    -0.67639143     0.78530687
H     -2.62147547     0.88816027    -0.01694844
H     -4.52908215    -1.46645135    -0.57009990
H     -4.59632249     0.11573434    -1.38139874
H     -5.90368444     1.96826596     1.52322339
H     -4.13916275     1.84513757     1.26887416
H     -5.23090181     2.11747228    -0.13712677
H     -5.80830740    -0.27601167     2.67402267
H     -5.07020386    -1.66387022     1.80183377
H     -4.04833468    -0.29209282     2.36478218
H     -6.87856323     0.35477066    -0.74797978
H     -7.38491459     0.20204456     0.96926039
H     -6.81056837    -1.24516912     0.07241584
