50
conf 5 ff=MMFF E=12.178 Rg=5.06 smiles=CN1C(=O)c2ccc3c4c(ccc(c24)C1=O)C(=O)N(CCC[N+](C)(C)C)C3=O
C     -7.74452507     0.88049364    -0.00864431
N     -6.33353046     0.53985999    -0.06364223
C     -5.71268002     0.18578178     1.13151210
O     -6.27774992     0.15419867     2.22047329
C     -4.27214859    -0.15467154     1.06223695
C     -3.60617904    -0.57192668     2.22211778
C     -2.25109401    -0.89266498     2.17259859
C     -1.55743189    -0.79839269     0.96113967
C     -2.20813286    -0.38025454    -0.20751586
C     -1.52183869    -0.26585058    -1.42403513
C     -2.18017604     0.16840277    -2.57976138
C     -3.53531427     0.48834550    -2.52667834
C     -4.23661547     0.37697073    -1.31890633
C     -3.58853255    -0.05230347    -0.15489289
C     -5.67672740     0.72370016    -1.27773990
O     -6.21040647     1.16178282    -2.29233741
C     -0.08138762    -0.60407487    -1.48878527
O      0.55913447    -0.38176779    -2.51287553
N      0.49338728    -1.13517015    -0.33575329
C      1.89924723    -1.51756253    -0.40015145
C      2.82537121    -0.32760839    -0.12064641
C      4.28392655    -0.76848625    -0.19731608
N      5.29131112     0.36699203     0.07123935
C      6.70131191    -0.22431663    -0.03973931
C      5.12718922     0.94184936     1.47480404
C      5.16350807     1.48517642    -0.95867364
C     -0.11728573    -1.14117963     0.91682545
O      0.49244716    -1.37953825     1.95598890
H     -7.83056332     1.94576005     0.22791274
H     -8.25658350     0.30249789     0.76633576
H     -8.23067206     0.69018111    -0.97005954
H     -4.14277152    -0.64883366     3.16786909
H     -1.74477773    -1.21778233     3.08062183
H     -1.64620306     0.25707799    -3.52505147
H     -4.04431114     0.82432647    -3.43018859
H      2.08727938    -2.31623925     0.32763188
H      2.11295379    -1.93210932    -1.39281940
H      2.59416727     0.08054184     0.86852865
H      2.61979047     0.46390497    -0.84848732
H      4.48805228    -1.55195841     0.54247729
H      4.51396533    -1.16426631    -1.19392556
H      6.80220720    -1.01803241     0.70644940
H      6.82841330    -0.62599512    -1.04942330
H      7.42876198     0.57097835     0.14868498
H      4.17351119     1.47207959     1.53272923
H      5.15929137     0.11704954     2.19230887
H      5.94795389     1.64187981     1.65885974
H      5.98471265     2.19180286    -0.80415563
H      5.22122885     1.04360395    -1.95758323
H      4.20851526     1.99574751    -0.81270447
