13
SMD(acetonitrile)-opt r2scan/def2-svp q=1 m=2
C -1.86669536 -0.01380323 0.00000894
C -1.17172171 1.22430296 -0.00000013
C 0.20161287 1.23922725 -0.00002278
C 0.90394625 -0.01255533 -0.00003651
C 0.20811698 -1.26562222 -0.00002646
C -1.16482706 -1.25156294 -0.00000404
H -1.72489108 -2.18945912 0.00000353
H 0.78116763 -2.19780169 -0.00003716
O 2.20906807 0.05205544 -0.00005910
H 2.61443025 -0.84457075 -0.00006674
H 0.78275937 2.16443722 -0.00003082
H -1.73409859 2.16071600 0.00001048
H -2.95964869 -0.01784952 0.00002582
