41
viologen/neu q=0 m=1 E=-23006.473617eV model=uma-s-1p1
C        5.96910487       0.49606930       2.20213125       0.00029724      -0.00137761      -0.00077416
C        5.02800820       0.16674648       1.07615307      -0.01217702      -0.00293636      -0.00412173
C        4.77668270      -1.14922337       0.70995189      -0.00851855      -0.00381962      -0.00373769
C        3.92193632      -1.44635051      -0.34328499       0.00375163       0.00102693      -0.00533044
C        3.29315777      -0.43569834      -1.05776069      -0.00493569       0.00011527       0.00843579
C        2.33099066      -0.76131703      -2.17597176       0.01616630       0.00401384       0.00196363
C        3.54484849       0.88450884      -0.69412730       0.00221679      -0.00271849      -0.00312372
C        4.39689204       1.17899323       0.35573233      -0.00914441       0.00601252      -0.00109975
N        0.92950814      -0.61306965      -1.81245109       0.01398318      -0.00775407       0.00188714
C        0.29326622       0.60890794      -1.95406050       0.00115952      -0.00835555       0.00409334
C       -0.88923911       0.88353459      -1.39014354       0.00491873       0.00024509      -0.00797102
C       -1.60640240      -0.10082634      -0.57609440      -0.01137548       0.00774667      -0.00202657
C       -2.86250920       0.07895237      -0.10489016       0.00368122      -0.00299185       0.00159292
C       -3.58573646      -0.92902682       0.67506448      -0.00454269      -0.00244132       0.00560587
C       -4.79622819      -0.69414158       1.19049716      -0.00060072      -0.01045782      -0.00425440
N       -5.45542210       0.52081120       1.05839101       0.00219567       0.00197613       0.01383878
C       -6.89424484       0.55133150       1.22323147       0.00095362      -0.01005511       0.00719635
C       -4.85795843       1.46423555       0.23172173       0.00614388       0.00291983      -0.00426205
C       -3.65134987       1.29571235      -0.31938316      -0.00232258      -0.00682773       0.00258445
C       -0.81720333      -1.31186511      -0.33548845      -0.00211272       0.00356918      -0.00083259
C        0.36662489      -1.51383792      -0.92249937      -0.00443525      -0.00308588       0.00681295
H        5.60280630       1.33851817       2.78835687      -0.00773518       0.00516819       0.00366765
H        6.09743695      -0.35415666       2.87046411      -0.00041372      -0.00801738       0.00568948
H        6.95427807       0.76800210       1.81854242       0.01073678       0.00313317      -0.00949891
H        5.25239364      -1.95468479       1.25706565       0.00017427      -0.00237395      -0.00267153
H        3.74615407      -2.48245344      -0.61192679      -0.00754732       0.00962640       0.00028263
H        2.51435459      -0.11556534      -3.03556815       0.00733898       0.00206466      -0.00528229
H        2.48888566      -1.79010439      -2.50582729       0.00363079       0.00737895      -0.00366919
H        3.06551405       1.69255378      -1.23519964      -0.00528945      -0.00785675       0.00454875
H        4.57585962       2.21345695       0.62489489      -0.00183112       0.00536127       0.00067246
H        0.80983870       1.32737787      -2.57707954      -0.00667087      -0.00020005      -0.00114893
H       -1.31505210       1.85677557      -1.58057248      -0.00209350       0.00621998       0.00426422
H       -3.16010481      -1.90744144       0.83825736      -0.00205387       0.00551761       0.00717951
H       -5.32938128      -1.44729872       1.75608447      -0.00842375       0.00472904      -0.00719233
H       -7.17230666      -0.04292075       2.09285511      -0.00349166       0.00572062       0.00045705
H       -7.42046174       0.15514473       0.34785709      -0.00053704       0.00748906      -0.00319487
H       -7.22326163       1.57579331       1.39350678       0.00831669      -0.00299703      -0.00326208
H       -5.43573403       2.36596781       0.07695046       0.00728142       0.00320376      -0.00856609
H       -3.26538002       2.10397313      -0.92189860       0.00102585       0.00044248      -0.00090511
H       -1.17237895      -2.07321744       0.34152772       0.00527385      -0.00564844       0.01053067
H        0.95181418      -2.40416749      -0.73409151       0.00700611      -0.00376560      -0.00837827
