56
SMD(acetonitrile)-opt r2scan/def2-svp q=2 m=1
C 4.96047807 -0.03040851 -0.05363165
N 3.50414885 -0.04935546 0.03006406
C 2.80262609 -1.15232278 -0.37270585
C 1.43255764 -1.16042935 -0.40690127
C 0.67055186 -0.01119609 -0.02612952
C -0.76424427 0.01514365 -0.07648489
C -1.53995952 -1.10558093 -0.51113160
C -2.90818056 -1.04791737 -0.56778698
N -3.59474228 0.07923349 -0.20904115
C -5.04193395 0.14733992 -0.37838479
C -2.89394959 1.17855326 0.20466594
C -1.52542514 1.17297846 0.27915718
C 1.44753404 1.11813536 0.38340695
C 2.81730705 1.07418716 0.39996522
H 5.34954191 -1.04118246 0.12153529
H 5.28009207 0.31112263 -1.05132532
H 5.36095401 0.65328262 0.70520563
H 3.40131630 -2.01876082 -0.66118130
H 0.95005637 -2.08383601 -0.72945187
H -1.07097329 -2.04581263 -0.80382355
H -3.51729735 -1.89251476 -0.89639479
H -5.47247697 -0.85193347 -0.23732550
H -5.46421296 0.83655500 0.36351614
H -5.29123019 0.50821110 -1.38924656
H -3.49214188 2.05204901 0.47220275
H -1.04416464 2.08681572 0.62959279
H 0.97741272 2.04878966 0.70364567
H 3.42739300 1.92553854 0.70908756
C -5.17907634 -1.01215876 2.96416717
N -3.72275394 -0.99211833 2.88081466
C -3.02171649 0.11076418 3.28459762
C -1.65165155 0.11931858 3.31905161
C -0.88915870 -1.02942753 2.93769510
C 0.54564497 -1.05535453 2.98822496
C 1.32094867 0.06544130 3.42342430
C 2.68920311 0.00821080 3.48011289
N 3.37615082 -1.11860107 3.12106698
C 4.82346033 -1.18632665 3.28961317
C 2.67574230 -2.21795211 2.70677634
C 1.30722578 -2.21279961 2.63218064
C -1.66567622 -2.15875282 2.52735097
C -3.03544912 -2.11523784 2.51044493
H -5.56839444 -0.00032708 2.79597985
H -5.57932906 -1.69067417 2.20054136
H -5.49871724 -1.36079019 3.95939651
H -3.62075543 0.97675336 3.57367334
H -1.16953114 1.04262225 3.64246743
H 0.85163945 1.00534538 3.71665262
H 3.29799342 0.85284726 3.80921924
H 5.07341962 -1.55175755 4.29867419
H 5.24612417 -1.87172792 2.54438007
H 5.25305412 -0.18603739 3.15302808
H 3.27426640 -3.09109579 2.43881378
H 0.82631451 -3.12660468 2.28118700
H -1.19518280 -3.08903228 2.20657346
H -3.64519232 -2.96655459 2.20053949
