15
methylpyridinium conf 0 ff=MMFF E=45.277
C      2.16956001     0.05792468     0.04788713
N      0.69801234     0.01774550     0.02505627
C     -0.00347074     1.17129965     0.11108874
C     -1.39323026     1.15706089     0.08125984
C     -2.05937771    -0.05517099    -0.04341813
C     -1.32464338    -1.22983757    -0.13894259
C      0.06380978    -1.17013545    -0.10491610
H      2.49576412     0.90693517     0.65415039
H      2.51003031     0.16303661    -0.98514744
H      2.54675980    -0.86765399     0.49038841
H      0.55601098     2.09808757     0.20177107
H     -1.95474116     2.08624589     0.15308856
H     -3.14815336    -0.08410604    -0.06889543
H     -1.83195206    -2.18693344    -0.24113347
H      0.67562134    -2.06449848    -0.18223726
