12
bm_2_5_dichloro_1_4_benzoquinone conf 0 ff=MMFF E=7.640
O     -1.07953033    -2.43544079     0.06987845
C     -0.60198883    -1.30832601     0.03763979
C      0.86361253    -1.14024990     0.02641917
C      1.42373596     0.07078846    -0.00843485
Cl     3.13794361     0.24233738    -0.02089103
C      0.60198885     1.30832600    -0.03764014
O      1.07952996     2.43544099    -0.06987811
C     -0.86361255     1.14024979    -0.02641975
C     -1.42373589    -0.07078860     0.00843464
Cl    -3.13794355    -0.24233747     0.02089179
H      1.44770122    -2.05311120     0.04806445
H     -1.44770096     2.05311134    -0.04806442
