14
SMD(acetonitrile)-opt r2scan/def2-svp q=0 m=1
C 1.40122322 -0.16670771 -0.00012072
C 0.83721957 1.12036783 -0.00011013
C -0.54859210 1.28390194 -0.00004913
C -1.40116935 0.16670801 -0.00003046
S -3.15311477 0.45046197 -0.00006573
H -3.51963393 -0.85227624 0.00069268
C -0.83725447 -1.12041741 -0.00005954
C 0.54854465 -1.28389253 -0.00008321
H 0.96455722 -2.29654155 -0.00008370
H -1.47962671 -2.00641891 -0.00005762
H -0.96462661 2.29649563 -0.00000671
H 1.47963496 2.00639720 -0.00012852
S 3.15309353 -0.45036580 -0.00018741
H 3.52011997 0.85225980 -0.00009707
