14
SMD(acetonitrile)-opt r2scan/def2-svp q=0 m=1
C -0.69502369 -1.22467842 -0.00002358
C 0.69502087 -1.22467167 -0.00002941
C 1.39202118 0.00000088 -0.00003486
C 0.69503632 1.22468150 -0.00003521
C -0.69500826 1.22467204 -0.00002938
C -1.39201088 0.00000088 -0.00002330
C -2.82232789 0.00000896 -0.00001639
N -3.98782762 0.00001532 -0.00000948
H -1.24669308 2.16734883 -0.00002937
H 1.24672222 2.16735800 -0.00003984
C 2.82233803 -0.00000769 -0.00003900
N 3.98783775 -0.00001606 -0.00003781
H 1.24670572 -2.16734852 -0.00002965
H -1.24670961 -2.16735483 -0.00001918
