14
SMD(acetonitrile)-opt r2scan/def2-svp q=1 m=2
C -4.26634303 3.49575180 -0.76443398
C -4.38157319 2.14829593 -0.74509520
S -2.94272781 1.23960623 -0.43055966
S -2.69286947 4.15621326 -0.47637384
C -1.90138497 2.62225425 -0.27045822
C -0.53524908 2.50971550 0.00228268
S 0.50224494 3.89334068 0.17745721
S 0.25994769 0.97564148 0.19266175
C 1.94336657 2.98472338 0.48142352
C 1.83156793 1.63682560 0.48907483
H 2.86961174 3.54119653 0.65245829
H 2.65372276 0.93719171 0.66627191
H -5.08687370 4.19570569 -0.94779128
H -5.30915171 1.59250832 -0.91105743
