13
SMD(acetonitrile)-opt r2scan/def2-svp q=1 m=2
C 0.79561610 0.77240344 -0.00007318
C -0.25194600 1.74737689 -0.00003221
C -1.56308337 1.31934311 0.00005240
C -1.85483748 -0.06314462 0.00009342
C -0.81834267 -1.02644324 0.00004921
C 0.50111988 -0.62535640 -0.00003230
H 1.31261153 -1.35815857 -0.00006200
H -1.06494884 -2.09103020 0.00008151
H -2.89683594 -0.39427392 0.00016115
H -2.37646314 2.04874183 0.00008677
H -0.00733931 2.81327617 -0.00006832
S 2.40024017 1.36990703 -0.00016626
H 3.03991882 0.16520846 -0.00017860
