46
tempo/ox q=1 m=1 E=-23627.710005eV model=uma-s-1p2p1
C        7.02852848      -0.39063200       1.14260549       0.00063739      -0.00241024       0.00007647
C        5.61035839      -0.17135634       0.69526077      -0.00247545       0.00071679       0.00069267
C        5.31514311       0.11353188      -0.63323852       0.00020267      -0.00880790      -0.00744194
C        4.00541887       0.29403021      -1.04954596      -0.00180976       0.00481845      -0.00144959
C        2.95841454       0.21240544      -0.14183928      -0.00613523      -0.00390380      -0.00119422
C        1.55848196       0.50630762      -0.59568201      -0.00509585       0.00343287       0.00832982
C        3.24233260      -0.07661751       1.18716238      -0.00218731       0.00815724       0.00098071
C        4.55203172      -0.27007495       1.59464085      -0.00532081      -0.00700346       0.00635272
O        0.62936542      -0.33926840       0.08412951      -0.00078645       0.00539761       0.00036483
C       -0.70316863       0.07458503      -0.02845303       0.00465479       0.00232846      -0.00892586
C       -1.48920676      -0.70854342       1.00721882       0.01187360       0.00051879      -0.01364502
C       -2.97785970      -0.37367259       1.05498608       0.00713474      -0.00633584      -0.01195582
C       -3.76698525      -1.44175352       1.79924457      -0.00472980       0.00177840       0.00197134
C       -3.25824839       1.01363025       1.65844864       0.00477117      -0.00397390      -0.00398035
N       -3.53314453      -0.31154036      -0.36837349      -0.00361452       0.00238576      -0.00040823
O       -4.66995918      -0.57625801      -0.52445022       0.00425768      -0.01481300      -0.00133828
C       -2.73584941       0.14810678      -1.58989813      -0.00758710      -0.00845427       0.00779629
C       -2.94636590       1.67039547      -1.66209775       0.00278014      -0.00822400       0.00320126
C       -3.34969141      -0.52873885      -2.80791154      -0.00437537       0.00332498      -0.00024859
C       -1.26998481      -0.23738735      -1.41023674      -0.00715162      -0.00291457       0.00185478
H        7.15985023      -0.11107685       2.18722392       0.00256626      -0.00309749       0.00047937
H        7.30678242      -1.44164404       1.04386770      -0.00037838      -0.00400482      -0.00035154
H        7.72504046       0.19290903       0.54186449       0.00409956      -0.00394904       0.00010313
H        6.12007678       0.19125912      -1.35352393       0.00934315       0.00163748      -0.00972059
H        3.80001811       0.50821561      -2.09235289       0.00119065       0.00210471      -0.00483914
H        1.29663945       1.55113846      -0.37746955       0.01213908       0.01020701      -0.00124599
H        1.48974968       0.36298594      -1.67941470      -0.00432859       0.00003360       0.01399833
H        2.43583646      -0.15558917       1.90483161      -0.00178783       0.00677658       0.00272458
H        4.76017473      -0.49629026       2.63330716      -0.00433758       0.00438329       0.01512377
H       -0.76857982       1.15388543       0.17189962       0.00259201      -0.00122432       0.00735241
H       -1.08382621      -0.52108243       2.00267173       0.00022080       0.00450461      -0.01186124
H       -1.35372605      -1.77385534       0.80270247      -0.00441686      -0.00385492       0.00743319
H       -3.73196473      -2.39870275       1.27831136       0.01283186       0.00063488       0.00125349
H       -4.80434632      -1.15496769       1.95101442      -0.01279113       0.00181793       0.00526199
H       -3.29700328      -1.56973429       2.77323723       0.00047060       0.00191202       0.00374746
H       -3.05206548       0.93416324       2.72491467       0.01127453       0.00407240       0.00616491
H       -2.62310819       1.79434302       1.24915492       0.00407148       0.00575329      -0.00876150
H       -4.30475792       1.29201056       1.53764216      -0.00674922      -0.00684353      -0.00432559
H       -2.42222543       2.21127463      -0.87897445      -0.00076698       0.00330803       0.00666875
H       -2.54737458       1.99466167      -2.62249588       0.00598205       0.00253372      -0.00056199
H       -4.00622883       1.92291083      -1.63481122      -0.00274844      -0.00634236      -0.00233621
H       -3.37893810      -1.61214634      -2.68978865       0.01202970       0.00399049       0.00102489
H       -2.71155299      -0.29896955      -3.66010618      -0.00306417       0.00575899       0.00027180
H       -4.35202289      -0.16472259      -3.01922515      -0.00520669       0.00265768      -0.00383160
H       -0.71507152       0.28992388      -2.18779886      -0.01578710      -0.00102943       0.00473237
H       -1.14098733      -1.30804962      -1.59214732      -0.00149165       0.00224063      -0.00953797
