41
charge=0 mult=1 n_e=-2 smiles=Cc1ccc(C[n+]2ccc(-c3cc[n+](C)cc3)cc2)cc1
C      6.19350082     0.72356570     2.05430404
C      5.18036547     0.30061787     1.02911380
C      5.03244322    -1.04915034     0.69649743
C      4.12178847    -1.44220279    -0.28655162
C      3.34554413    -0.48749983    -0.96001942
C      2.34958636    -0.91529616    -2.00432175
C      3.51284557     0.86820533    -0.64048616
C      4.42526570     1.25657402     0.34309087
N      0.95801237    -0.67587351    -1.53062408
C      0.21389751     0.30568265    -2.08620630
C     -1.08849227     0.54650668    -1.64512934
C     -1.65037646    -0.22727290    -0.62284054
C     -3.02362318     0.01471082    -0.13695918
C     -3.96808021    -1.01666642    -0.07103345
C     -5.26046588    -0.76815811     0.39363747
N     -5.61893155     0.47037384     0.79598596
C     -6.99344653     0.71386758     1.27763955
C     -4.73841247     1.49315917     0.74144425
C     -3.43798105     1.28563756     0.27919636
C     -0.85134907    -1.23858630    -0.07767841
C      0.44743322    -1.44640019    -0.54294891
H      5.87518146     1.64010461     2.56205635
H      6.31620103    -0.04724633     2.82240725
H      7.16004138     0.90205347     1.57323556
H      5.63974546    -1.80219715     1.19831498
H      4.04815778    -2.50319366    -0.52107881
H      2.51145295    -0.36664580    -2.93869929
H      2.42261015    -1.98505723    -2.23410803
H      2.95591062     1.64684421    -1.15678894
H      4.55708541     2.31448895     0.56795746
H      0.66491725     0.89736875    -2.87884410
H     -1.66030988     1.34237454    -2.12128377
H     -3.71628517    -2.02639124    -0.39361361
H     -6.01189160    -1.55230744     0.44378010
H     -7.37548717    -0.19795715     1.74375169
H     -7.59778291     0.99261417     0.41098967
H     -6.97511844     1.51869579     2.01695343
H     -5.08049484     2.47158857     1.06961818
H     -2.75044567     2.13066181     0.26321357
H     -1.22042340    -1.86839712     0.73109876
H      1.08741140    -2.21919643    -0.12415315
