46
tempo/rad q=0 m=2 E=-23634.629250eV model=uma-s-1p1
C        7.02997163      -0.37877207       1.13867195       0.00574717      -0.00085217       0.00325807
C        5.61105527      -0.15619934       0.68980795       0.00892106       0.00146595       0.00712982
C        5.31883196       0.14866018      -0.63496982       0.00245933      -0.00613489       0.00323614
C        4.00806720       0.31987829      -1.05344915       0.00102230       0.00775975       0.00419244
C        2.95512325       0.20557164      -0.15534079      -0.00712674      -0.00337237      -0.00331739
C        1.54617366       0.45958126      -0.61587542      -0.01093217      -0.00115932      -0.00101317
C        3.23901812      -0.09822391       1.17027976      -0.00003459       0.00731263      -0.00040331
C        4.55038039      -0.27702924       1.58264621       0.00051326      -0.00535473      -0.00193744
O        0.64123432      -0.33077641       0.12678897      -0.00712983      -0.00129452      -0.00495321
C       -0.71306998       0.06787376      -0.00793290       0.00205281       0.00398574      -0.00470808
C       -1.50937899      -0.71216688       1.01529798       0.00863858       0.00642270      -0.01023864
C       -2.99776169      -0.36244233       1.02101371       0.00905951       0.00174706      -0.00508495
C       -3.76784408      -1.44558607       1.77103383       0.00464920       0.00040691      -0.00270216
C       -3.25616867       0.99196282       1.69043096       0.00061113      -0.00106078       0.00088825
N       -3.52350639      -0.32811334      -0.37006134       0.00099542      -0.00077191       0.00049739
O       -4.78922746      -0.24894006      -0.48159102       0.01249326      -0.00632518      -0.00204132
C       -2.74234392       0.14441480      -1.54314627       0.00054630      -0.00057269       0.00636655
C       -2.91434145       1.66106858      -1.68750774       0.00020219      -0.00196528      -0.00170435
C       -3.31319974      -0.54460479      -2.77932442       0.00282110       0.00004443       0.00469206
C       -1.26978744      -0.23869493      -1.38827321      -0.00334447       0.00032783       0.00642159
H        7.16102227      -0.10009689       2.18416331      -0.00149225      -0.00210531       0.00190733
H        7.30981228      -1.42993429       1.04039883      -0.00193669      -0.00044528      -0.00021768
H        7.72953661       0.20529130       0.54082166      -0.00204324      -0.00146025      -0.00289729
H        6.12693612       0.24673817      -1.35078555       0.00040862       0.00040853       0.00073579
H        3.80338461       0.54763083      -2.09368935      -0.00141547      -0.00297896      -0.00313884
H        1.29621980       1.52274580      -0.47965686      -0.00309510       0.00343061      -0.00275621
H        1.47240773       0.24346718      -1.68764841       0.00492449       0.00307548      -0.00307603
H        2.42600836      -0.20070061       1.87669404      -0.00239922      -0.00322399      -0.00027077
H        4.75516583      -0.51319392       2.62082288      -0.00003274       0.00053751      -0.00063003
H       -0.77678893       1.14599340       0.19666399      -0.00025822       0.00113163       0.00126534
H       -1.10549718      -0.53578266       2.01450434      -0.00677934      -0.00703656      -0.00627675
H       -1.38082492      -1.77598459       0.79483592      -0.00175886       0.00514319       0.00562821
H       -3.66241119      -2.40630324       1.26603596      -0.00015947      -0.00529111      -0.00016757
H       -4.82504381      -1.19729434       1.82524125      -0.00087711      -0.00217521       0.00627040
H       -3.36894722      -1.53630285       2.78246992       0.00521783       0.00157894       0.00019163
H       -3.02228783       0.92305447       2.75393466      -0.00789024       0.00214507       0.00199526
H       -2.64983817       1.79084647       1.26453184      -0.00460981      -0.00255508      -0.00070956
H       -4.30791570       1.25436211       1.57865260       0.00424188       0.00881705       0.00591375
H       -2.42764177       2.21456951      -0.88489498      -0.00673116      -0.00367794      -0.00220243
H       -2.47981704       1.98842389      -2.63353835      -0.00958968       0.00447473      -0.00224831
H       -3.97619436       1.90616041      -1.68619019       0.00639242       0.00608507      -0.00049142
H       -3.26974074      -1.62821973      -2.66400120      -0.00532583      -0.00245802      -0.00410129
H       -2.72340061      -0.26205807      -3.65288323      -0.00160015      -0.00002550      -0.00009359
H       -4.34893627      -0.25415923      -2.93890836       0.00298906      -0.00000454      -0.00232757
H       -0.71208281       0.28549802      -2.16768431      -0.00055072      -0.00911953       0.01074016
H       -1.14635088      -1.31221309      -1.56188476       0.00220634       0.00512032      -0.00162087
