14
SMD(acetonitrile)-opt r2scan/def2-svpd q=-1 m=2
C 1.13219928 1.36303351 -0.11735773
O 1.92557215 1.96106605 0.60596523
O 1.47499161 0.24375307 -0.80762454
C 2.79595214 -0.28468243 -0.58264217
C 2.84198203 -1.14656391 0.66039476
H 2.61695875 -0.55763730 1.56023348
H 3.84907764 -1.57624408 0.77060284
H 2.12021054 -1.97298894 0.58822124
H 3.01631015 -0.87436251 -1.48219866
H 3.51002704 0.54893191 -0.52020012
C -0.23024263 1.75571459 -0.36009254
H -0.60341460 2.65890367 0.11782269
H -0.86014441 1.19644822 -1.04941001
Br -1.39482218 -0.00094635 1.98308178
