29
cyanopyridinium/red q=0 m=2 E=-17708.025399eV conf=3 model=uma-s-1p2p1
C       -4.62685436       0.41534993       0.68241888      -0.00745643      -0.00054024       0.00259996
C       -3.26352149      -0.06603449       0.26729360      -0.00160542       0.00032691      -0.00236758
C       -2.35514987      -0.54392050       1.21110726      -0.00130535       0.00680956      -0.00984746
C       -1.09051623      -0.96156320       0.83566118      -0.00231437       0.00299638      -0.00157089
C       -0.69676178      -0.91331575      -0.49824020       0.01315069       0.01431560       0.00211570
C        0.69426434      -1.34233711      -0.90020994       0.00636285       0.00198025      -0.00131507
C       -1.59744266      -0.44215165      -1.44234047       0.00836158      -0.00805545       0.00709457
C       -2.86688910      -0.02531491      -1.06354020       0.00759875       0.00036769      -0.00277291
N        1.73498495      -0.50075916      -0.32867485       0.00135615       0.00472646      -0.00213380
C        1.84941699       0.81568989      -0.74286216       0.00854173       0.00509985       0.00324840
C        2.78810022       1.63995914      -0.22526239      -0.00113234      -0.00568515       0.00421806
C        3.68485791       1.17520322       0.77836098      -0.00295494      -0.01290112       0.00004910
C        4.67388868       2.01645273       1.33361841       0.00310474       0.01643974      -0.00222053
N        5.48404240       2.70457742       1.78781503      -0.00789993      -0.00746923      -0.00270941
C        3.53973347      -0.17712120       1.19977889      -0.01049673      -0.01426389      -0.00068713
C        2.58798988      -0.96864792       0.65291669      -0.00331550      -0.00006163      -0.00883628
H       -5.35587114       0.27162899      -0.11424003      -0.00060513       0.00204723      -0.00974187
H       -4.98041855      -0.11334281       1.56669275       0.00178870      -0.00736337       0.01342899
H       -4.60609599       1.48040437       0.92215635       0.00907911       0.00430916       0.00093246
H       -2.64698160      -0.58946792       2.25397548      -0.00016674      -0.00528306      -0.00753471
H       -0.39977156      -1.32710609       1.58790252       0.00064560       0.01845602      -0.00417470
H        0.78425277      -1.32610868      -1.98934886      -0.00117719      -0.01043767      -0.00493844
H        0.89378929      -2.36366089      -0.57504891      -0.01390948      -0.00493815      -0.00061288
H       -1.30771852      -0.40364153      -2.48706912      -0.00230645       0.00539974       0.01306286
H       -3.55709683       0.34000884      -1.81537774       0.00282873      -0.01293564       0.00757545
H        1.14477062       1.13325356      -1.49731165      -0.00549511      -0.00134172       0.00337360
H        2.84991439       2.65750324      -0.58285158      -0.00350463       0.00391284       0.00225274
H        4.19100858      -0.58633430       1.95828129      -0.00224016       0.00428147       0.00677080
H        2.45007518      -1.99920320       0.94537178       0.00506723      -0.00019256      -0.00525901
