29
cyanopyridinium/ox q=1 m=1 E=-17702.411437eV conf=3 model=uma-s-1p2p1
C       -4.56703577       0.55289469       0.60272948      -0.00020317      -0.00413211       0.00169853
C       -3.22342382      -0.00599881       0.23369433       0.00557850       0.01317166       0.01341161
C       -2.40918870      -0.60099806       1.19797859       0.00504511      -0.00529542       0.00411346
C       -1.15877253      -1.09179613       0.86973660      -0.00441096       0.00984782      -0.00704989
C       -0.68879121      -0.99620520      -0.43760475      -0.00158227      -0.00737225       0.00188147
C        0.68514526      -1.48591509      -0.78141291      -0.00177829      -0.00844273       0.00123555
C       -1.49785735      -0.41964509      -1.40928132      -0.00924010       0.00788887      -0.01413128
C       -2.75196896       0.06807831      -1.07331209      -0.00302828      -0.00636425       0.01183717
N        1.74280082      -0.54538331      -0.26562685      -0.00230248      -0.00117922      -0.00271534
C        1.65934419       0.75729129      -0.58017888       0.00468136      -0.00531366       0.00204624
C        2.58527402       1.65729848      -0.11136562       0.00483811      -0.00309749       0.00475439
C        3.61246779       1.19645269       0.70971375       0.01431486       0.00323770       0.00001277
C        4.58073831       2.11090562       1.24513316      -0.00849063      -0.01065956       0.00572392
N        5.34960315       2.83801367       1.68818527       0.00732655       0.00762904      -0.00697009
C        3.68775066      -0.15740077       1.02081678       0.00132991       0.00705795      -0.00071127
C        2.73196773      -1.00639142       0.51232822       0.00192563       0.00655570      -0.00213123
H       -5.25565921       0.52197786      -0.23974940       0.00005341      -0.00063900      -0.01273234
H       -5.00781584       0.00049467       1.43056138       0.00658516       0.00599933       0.00083467
H       -4.47013861       1.59500551       0.91359873      -0.01407046      -0.00977340       0.00528599
H       -2.76637680      -0.68957154       2.21647591      -0.00720727      -0.00608332      -0.00187968
H       -0.55365717      -1.56453090       1.63627735      -0.00557697       0.00955065      -0.00540195
H        0.83130640      -1.56157404      -1.85794515       0.00568041       0.00998503       0.00464753
H        0.90347423      -2.45208283      -0.33185508       0.00009626      -0.00764247       0.00375818
H       -1.16009646      -0.36641633      -2.43886776      -0.00014098      -0.00483862      -0.00636438
H       -3.37709542       0.50633759      -1.84087182      -0.01245708       0.00180306      -0.00447566
H        0.81812299       1.04591238      -1.19416872       0.00727695       0.00162042       0.00543075
H        2.50163163       2.70231118      -0.37117932       0.00316531      -0.00788565      -0.00034246
H        4.47162101      -0.54318042       1.65575465      -0.00411136      -0.00063886      -0.00194583
H        2.72662983      -2.06588631       0.72140927       0.00670275       0.00501061       0.00017922
