28
SMD(acetonitrile)-opt r2scan/def2-svp q=0 m=2
C -4.08870889 -0.10488191 -1.26041771
C -2.75638998 0.01294047 -0.57517292
C -2.02830408 1.21510357 -0.59701196
C -0.80324122 1.33017436 0.06643643
C -0.26497163 0.24438611 0.77588618
C 1.10601463 0.33470474 1.40570235
C -0.98913591 -0.95961498 0.80040666
C -2.21301877 -1.07191293 0.13673321
N 2.16863372 -0.03970821 0.47327263
C 2.64406005 0.89962611 -0.44626312
C 3.39322179 0.51710755 -1.53028483
C 3.69516346 -0.85283508 -1.76922281
C 3.19354928 -1.79476580 -0.82820800
C 2.44638011 -1.39165427 0.24977607
H -4.21379587 -1.09221604 -1.73209488
H -4.91644742 0.01055900 -0.53836259
H -4.21646506 0.66949940 -2.03157122
H -2.43126309 2.07607820 -1.14159109
H -0.25816569 2.28010645 0.03760366
H 1.30711324 1.36289224 1.74466116
H 1.17451992 -0.33554276 2.27679775
H -0.59032438 -1.81821015 1.35187000
H -2.76260331 -2.01914795 0.17249173
H 2.39919611 1.94062566 -0.22358831
H 3.76197443 1.29800353 -2.20252382
H 4.28211077 -1.16638085 -2.63444795
H 3.40229794 -2.86336600 -0.93886007
H 2.05240706 -2.08231911 0.99876239
