14
SMD(acetonitrile)-opt r2scan/def2-svp q=0 m=1
C -0.61759747 1.17059916 0.28958920
C 0.77372691 1.14762502 -0.31902479
C 1.52267294 -0.10465864 0.14157268
C 0.60146479 -1.29101565 0.07679500
C -0.72932233 -1.14877696 -0.07508593
O -1.39581821 0.03145541 -0.10471487
H -1.41292147 -1.99654350 -0.19750876
H 1.00844126 -2.30687488 0.10573847
H 1.91579081 0.03733347 1.16705990
H 2.40990808 -0.27752354 -0.49304944
H 1.30775844 2.06924396 -0.03721523
H 0.67753381 1.14784520 -1.41935641
H -1.19401333 2.05143509 -0.02828425
H -0.55213085 1.17880482 1.39492685
