29
tempo_parent/red q=-1 m=1 E=-13161.654753eV conf=0 model=uma-s-1p2p1
C        1.57029743      -0.52939239       1.33981496      -0.00595993      -0.00484501       0.00229586
C        1.26729298      -0.16746839      -0.12537478      -0.00166082      -0.00654142      -0.00022221
C        2.40761756      -0.71637226      -0.98529376      -0.00403322       0.00199109       0.00098452
C        1.19880524       1.35024721      -0.32281173      -0.00948907      -0.00641786       0.00032896
C       -0.07100307       1.95840092       0.25326776       0.00414154      -0.00390749      -0.00238514
C       -1.27577632       1.26626446      -0.36582683       0.01233886      -0.01237332      -0.00594989
C       -1.24744252      -0.25286503      -0.16892011       0.00034822      -0.01057364      -0.00142848
C       -1.57491511      -0.63591506       1.28580150       0.00288653       0.00235805       0.00014323
C       -2.31870522      -0.87632188      -1.06643495       0.00623636      -0.00451912       0.00007530
N        0.03825804      -0.79669510      -0.65526869       0.00134406      -0.00048788       0.01201092
O        0.08055053      -2.17538648      -0.41462068       0.00033690      -0.00065549      -0.00399546
H        2.63845031      -0.42123692       1.55254669       0.01411931      -0.00595423       0.01269595
H        1.02470235       0.09044209       2.05282576      -0.00266304       0.00916162       0.00459309
H        1.27711980      -1.57353606       1.46774947      -0.00766378      -0.00068940      -0.00636293
H        2.20552586      -0.49761968      -2.03651148      -0.00334459       0.00163986      -0.00394201
H        3.36464947      -0.26726720      -0.69604812      -0.00561313       0.00056705      -0.00810497
H        2.44413147      -1.79760700      -0.86301607       0.00412501      -0.00026042      -0.00326060
H        2.09204073       1.81145140       0.11543269      -0.00878875       0.00389010       0.00355297
H        1.22352451       1.55162980      -1.39994324       0.00263276       0.00984386      -0.00122398
H       -0.08624504       1.84480770       1.34125869      -0.00169797       0.00763690       0.00190083
H       -0.10393657       3.03542816       0.05540760       0.00045432      -0.00082581       0.00722103
H       -2.21295284       1.66465392       0.04099076      -0.00349581       0.01211640      -0.00223336
H       -1.27702353       1.46704199      -1.44342651       0.00716759       0.00433098      -0.00062191
H       -1.09731927       0.01838714       2.01669736      -0.00987335      -0.00132522       0.00102339
H       -1.21622175      -1.65794650       1.42461321       0.00228356       0.00486501      -0.00515962
H       -2.65455045      -0.59984074       1.46178723       0.00374503      -0.00189070      -0.01288697
H       -2.09436976      -0.64547483      -2.11053174       0.00432403       0.00889485       0.00451560
H       -2.28994613      -1.95752881      -0.94197205       0.00660640      -0.00195546      -0.00914931
H       -3.31255855      -0.49027982      -0.81219352      -0.00880705      -0.00407322       0.01558523
