29
tempo_parent conf 0 ff=MMFF E=29.567
C      1.69754839    -0.52216834     1.34707683
C      1.29456786    -0.22937869    -0.12040676
C      2.47509500    -0.69519786    -1.02108649
C      1.20273492     1.30956916    -0.31425524
C     -0.06917186     1.91136047     0.26402514
C     -1.27696763     1.22570567    -0.35679177
C     -1.27123232    -0.31615374    -0.16441880
C     -1.70355147    -0.63719323     1.28873662
C     -2.38605188    -0.85960256    -1.10447104
N      0.03938892    -0.85968827    -0.60130502
O      0.08391588    -2.28284834    -0.39120021
H      2.67109543    -0.06934985     1.57345295
H      0.99480361    -0.11347523     2.07344530
H      1.80143428    -1.59466138     1.54329371
H      2.25155503    -0.53948284    -2.08349906
H      3.38769564    -0.13058485    -0.79455633
H      2.71107538    -1.75592302    -0.87925213
H      2.07174762     1.80573893     0.13671367
H      1.23811394     1.55065961    -1.38621970
H     -0.08483443     1.82126273     1.35469877
H     -0.10156713     2.98361300     0.03852158
H     -2.19244716     1.66152441     0.06356489
H     -1.29180428     1.46509680    -1.42961784
H     -1.05529738    -0.18283034     2.03827906
H     -1.74144464    -1.71448206     1.48251359
H     -2.71263337    -0.25140657     1.48111175
H     -2.13727381    -0.68791590    -2.15878239
H     -2.55456582    -1.93400732    -0.96957575
H     -3.34192871    -0.35818039    -0.90999536
