29
tempo_parent conf 6 ff=MMFF E=33.573
C      1.59492926    -1.45466736     0.10000346
C      1.20464405    -0.01745874     0.53767379
C      2.28019626     0.33436444     1.61832131
C      1.38353444     0.95985817    -0.65330831
C      0.29557012     0.82817961    -1.71332683
C     -1.08985444     0.94444789    -1.08744691
C     -1.31543810    -0.03316073     0.09533858
C     -2.69888098     0.30334091     0.74437168
C     -1.51594443    -1.47405147    -0.44602712
N     -0.19124908    -0.01373412     1.09007363
O     -0.33828731     1.18863117     1.88510004
H      2.67986135    -1.54615857    -0.03702434
H      1.16445171    -1.75409999    -0.85444017
H      1.30614502    -2.19193031     0.85829269
H      2.18653684    -0.31610847     2.49630119
H      3.29461094     0.20527104     1.22087544
H      2.21924191     1.37597599     1.95316309
H      2.36172398     0.80433294    -1.12622280
H      1.38491685     1.99587856    -0.28845547
H      0.42233646     1.61765641    -2.46356263
H      0.39579556    -0.12023845    -2.25067041
H     -1.84657439     0.77811704    -1.86487867
H     -1.22792334     1.97959947    -0.74707055
H     -2.76819370     1.34490158     1.07774585
H     -2.90195593    -0.34781334     1.60314835
H     -3.51567649     0.16283763     0.02550315
H     -1.49376428    -2.20937444     0.36684637
H     -2.48817319    -1.57836086    -0.94413958
H     -0.78257911    -1.76623601    -1.19618482
