29
tempo_parent conf 7 ff=MMFF E=33.573
C     -2.34949100    -0.67644498     1.39727358
C     -1.22944265    -0.30304750     0.37040558
C     -1.62455075    -1.10715713    -0.89716769
C     -1.33219072     1.21703820     0.07994199
C     -0.19667433     1.74547041    -0.78954419
C      1.15864741     1.37107486    -0.19998779
C      1.30842054    -0.14610323     0.08518824
C      1.50828050    -0.91341560    -1.24925226
C      2.66471251    -0.36636424     0.83375180
N      0.13781909    -0.71717186     0.83168091
O      0.26831276    -0.31093026     2.21635031
H     -2.28560146    -0.09490094     2.32383351
H     -3.34563164    -0.47497153     0.98402075
H     -2.31061088    -1.74163092     1.65534853
H     -1.15385398    -0.74516341    -1.81003955
H     -1.38661791    -2.17110419    -0.78158092
H     -2.70305921    -1.04038734    -1.08844944
H     -1.33210952     1.77789769     1.02434330
H     -2.28898147     1.44493284    -0.40719958
H     -0.27224182     2.83695253    -0.86133835
H     -0.28822768     1.36683034    -1.81254505
H      1.94900802     1.70701676    -0.88348115
H      1.29915769     1.94061670     0.72863207
H      1.43308573    -1.99672895    -1.09847668
H      2.50144026    -0.71851385    -1.67336536
H      0.80690531    -0.62390691    -2.03039966
H      2.81376926    -1.42473749     1.07944428
H      3.51270414    -0.05084943     0.21324665
H      2.73702180     0.21569941     1.75936616
