29
tempo_parent conf 2 ff=MMFF E=29.567
C      2.43836778    -1.05117845    -0.77550169
C      1.28738467    -0.28652481    -0.05968150
C      1.72016985    -0.08758203     1.41502111
C      1.21639547     1.10375366    -0.74994094
C     -0.03132813     1.89237426    -0.38174533
C     -1.26466352     1.06864477    -0.72036196
C     -1.27981997    -0.32285321    -0.02907736
C     -1.68279146    -0.13573974     1.45558807
C     -2.42544104    -1.12000512    -0.71752230
N      0.01091978    -1.01071220    -0.28377095
O      0.03692034    -2.28525754     0.38433794
H      3.36528432    -0.46497525    -0.76388947
H      2.66009386    -2.01076771    -0.29491047
H      2.19230187    -1.24987277    -1.82569577
H      2.70614716     0.39167511     1.46240879
H      1.81097708    -1.03721639     1.95305866
H      1.04168395     0.55439814     1.97716953
H      2.10393360     1.70052398    -0.50319978
H      1.23031047     0.97638620    -1.84175934
H     -0.02259930     2.16793299     0.67746285
H     -0.05136024     2.83043372    -0.94855256
H     -2.16259705     1.64015035    -0.45233444
H     -1.30098934     0.94056843    -1.81158185
H     -1.73383679    -1.08737989     1.99531704
H     -1.00954148     0.52537524     2.00162155
H     -2.68052739     0.31543637     1.52662387
H     -2.19895025    -1.31200942    -1.77334941
H     -3.36803123    -0.56025664    -0.68362534
H     -2.60841301    -2.08532203    -0.23210892
