29
tempo_parent conf 8 ff=MMFF E=33.573
C      2.71866033    -0.01928645    -0.73387230
C      1.31423680     0.10177399    -0.05466112
C      1.60169257    -0.26054271     1.42707430
C      0.85929209     1.58123573    -0.15367944
C     -0.56732360     1.80992029     0.33326706
C     -1.53915562     0.86940377    -0.37073462
C     -1.12948833    -0.62349667    -0.27581578
C     -2.10955180    -1.45224507    -1.17082523
C     -1.41491776    -1.15584604     1.15407197
N      0.31099871    -0.85616242    -0.62872239
O      0.41980883    -0.78278757    -2.07168768
H      2.71624357     0.32142677    -1.77536127
H      3.46108729     0.60096856    -0.21642539
H      3.08173645    -1.05386852    -0.71037455
H      1.74577874    -1.34038155     1.55013780
H      0.82406462     0.06493592     2.11648938
H      2.51840957     0.22627600     1.78325432
H      0.92626913     1.92295102    -1.19541020
H      1.53853573     2.22475078     0.42008747
H     -0.85729078     2.84812110     0.13262504
H     -0.62765349     1.68219175     1.41877494
H     -1.60740191     1.17098534    -1.42470243
H     -2.54225747     1.01361876     0.05078529
H     -1.85255890    -2.51831170    -1.15693424
H     -2.12008761    -1.11393448    -2.21304616
H     -3.14284910    -1.35901146    -0.81407927
H     -1.06398844    -0.49537550     1.94562929
H     -0.96927590    -2.14617270     1.30443800
H     -2.49301373    -1.26113694     1.32969723
