29
tempo_parent conf 9 ff=MMFF E=33.573
C     -2.61854229    -0.93758003    -0.44073672
C     -1.28103862    -0.30727963     0.07131815
C     -1.34443914    -0.53272405     1.60578829
C     -1.31773145     1.21229512    -0.23711528
C     -0.00523350     1.92450151     0.07070878
C      1.16370419     1.23319895    -0.62235319
C      1.24724324    -0.28598451    -0.32119482
C      1.77656368    -0.50643962     1.12125715
C      2.37673708    -0.89551009    -1.21624535
N     -0.06847300    -0.98775738    -0.49464609
O     -0.28804538    -1.14900993    -1.91772698
H     -2.63845226    -2.02001380    -0.26559679
H     -3.48222071    -0.50496120     0.07942198
H     -2.79004420    -0.75804749    -1.50804222
H     -2.34216089    -0.30064092     1.99938222
H     -1.13617182    -1.57826465     1.86157331
H     -0.66419117     0.10310920     2.17051401
H     -2.12511691     1.69360634     0.32959253
H     -1.55535182     1.37183297    -1.29755959
H     -0.06724652     2.96405905    -0.27232686
H      0.16215797     1.97088474     1.15150067
H      1.06598265     1.39392084    -1.70451594
H      2.09687229     1.72917194    -0.32587552
H      1.28917063     0.11955600     1.86725346
H      2.84269350    -0.25696591     1.19444181
H      1.67288134    -1.55460763     1.42547840
H      3.35022217    -0.44741370    -0.98129839
H      2.21362331    -0.71591754    -2.28485524
H      2.46660762    -1.97701856    -1.05814183
