29
tempo_parent conf 5 ff=MMFF E=29.567
C      2.59355388     0.05689475     0.96033931
C      1.31729586     0.05365800     0.06982770
C      1.66814774     0.81661623    -1.23264022
C      1.05612334    -1.43731116    -0.28112816
C     -0.30846533    -1.67446659    -0.91037938
C     -1.39005557    -1.15217063     0.02325643
C     -1.21382236     0.34870016     0.38478986
C     -2.20187038     0.61587905     1.55706860
C     -1.68700357     1.20770901    -0.81514131
N      0.17429018     0.57906933     0.85818533
O      0.37401295     1.97256775     1.15783096
H      3.41904909    -0.46815344     0.46453010
H      2.41377635    -0.44928885     1.91657854
H      2.94432881     1.07200722     1.17815455
H      1.88631829     1.87403078    -1.04876818
H      0.88214464     0.76102376    -1.98603209
H      2.56719714     0.38988139    -1.69490693
H      1.12354959    -2.04950147     0.62945508
H      1.83375826    -1.81421133    -0.95786445
H     -0.45399650    -2.74860955    -1.07366636
H     -0.37517710    -1.19757443    -1.89325940
H     -1.37216080    -1.75859368     0.93999973
H     -2.37279202    -1.32386857    -0.43444468
H     -1.91567497     0.05536739     2.45531968
H     -2.25017261     1.67750841     1.82455718
H     -3.21957908     0.30569691     1.29061021
H     -2.74375318     1.00901418    -1.03397185
H     -1.60874468     2.28144425    -0.61388893
H     -1.14027797     0.99668114    -1.73441132
