29
tempo_parent conf 4 ff=MMFF E=29.567
C      2.23389366    -1.12696664    -1.17970460
C      1.23892994    -0.38958701    -0.23727294
C      1.81814366    -0.47922903     1.19733602
C      1.25753058     1.09667783    -0.69008771
C      0.13887870     1.92427640    -0.07526599
C     -1.20073997     1.28509953    -0.40871032
C     -1.30469659    -0.19463020     0.05385806
C     -2.58524292    -0.75759905    -0.62814250
C     -1.55356093    -0.22081238     1.58323979
N     -0.12266326    -0.94612324    -0.43816522
O     -0.17532641    -2.31095125     0.01568912
H      2.39247356    -2.16936157    -0.88102785
H      3.21586858    -0.63847532    -1.17279353
H      1.87681786    -1.12481097    -2.21673344
H      1.26442864     0.11983941     1.92052931
H      1.85321868    -1.50938676     1.56758077
H      2.85023147    -0.10706011     1.21651007
H      2.22224963     1.56006063    -0.44650320
H      1.16192965     1.15190756    -1.78383962
H      0.26996743     2.01787157     1.00731663
H      0.17017129     2.94135265    -0.48294364
H     -2.00508850     1.88407280     0.03737974
H     -1.34611916     1.34415616    -1.49676405
H     -3.45560569    -0.12712460    -0.40924328
H     -2.47409050    -0.79134313    -1.71875838
H     -2.82764780    -1.76925512    -0.28356508
H     -1.65899712    -1.24019486     1.96960358
H     -2.48699343     0.30187521     1.82734399
H     -0.76796104     0.27572146     2.15313428
