29
tempo_parent conf 1 ff=MMFF E=29.567
C     -1.57300236    -1.00679281    -1.21696317
C     -1.31737794     0.01976152    -0.08450140
C     -2.64263639     0.80766924     0.12703355
C     -1.07354836    -0.75205402     1.24185468
C      0.31889314    -1.35759443     1.33530330
C      1.35721498    -0.25928801     1.16233981
C      1.19778857     0.52962922    -0.16678207
C      2.12257256     1.77365715    -0.02886102
C      1.76098974    -0.33094430    -1.32602509
N     -0.20925744     0.98361289    -0.30149300
O     -0.39121679     1.68008387    -1.54782086
H     -0.74629892    -1.70340573    -1.35762792
H     -2.45413353    -1.61867611    -0.98611187
H     -1.77498181    -0.52290552    -2.17852291
H     -3.45084185     0.13763137     0.44452235
H     -2.98001153     1.30481318    -0.78946435
H     -2.53128540     1.57388007     0.90385999
H     -1.20890124    -0.07309917     2.09577648
H     -1.81978722    -1.54734373     1.36587546
H      0.44681957    -1.83039482     2.31597724
H      0.45434928    -2.14627919     0.58860397
H      1.27107825     0.42964871     2.01464847
H      2.36025284    -0.69995983     1.22914414
H      1.77092242     2.44601717     0.76310511
H      2.18170785     2.35117324    -0.95833382
H      3.14597648     1.47491670     0.22871153
H      1.26335224    -1.29602302    -1.42335518
H      1.69800506     0.18111160    -2.29213572
H      2.82335780    -0.54884523    -1.15875771
