29
tempo_parent conf 3 ff=MMFF E=29.567
C      2.48956365     0.63620057     1.02437093
C      1.28607969     0.27946835     0.10446564
C      1.59236014     0.86824202    -1.29595100
C      1.28247663    -1.27104370     0.00311102
C      0.01246388    -1.82751535    -0.62275889
C     -1.19219273    -1.34522838     0.17128761
C     -1.27451011     0.20270719     0.27848034
C     -1.80183443     0.76648846    -1.06528518
C     -2.36171303     0.49076996     1.35405906
N      0.02924249     0.73115122     0.75282145
O     -0.00940664     2.16842552     0.81812006
H      2.66380586     1.71678183     1.07847063
H      2.33301129     0.26917364     2.04599722
H      3.41549554     0.18026831     0.65326095
H      1.63129470     1.96274764    -1.28701243
H      0.87205744     0.56310947    -2.05526156
H      2.57345832     0.52549418    -1.64816944
H      1.38894625    -1.70807790     1.00618134
H      2.14913543    -1.62001983    -0.57296229
H      0.04643648    -2.92304994    -0.60611666
H     -0.06778634    -1.53375159    -1.67404083
H     -2.10640154    -1.74759115    -0.28376031
H     -1.13584595    -1.78376326     1.17776524
H     -1.17387736     0.50177887    -1.91622083
H     -1.90440235     1.85675101    -1.04673087
H     -2.79933572     0.36442064    -1.28304211
H     -2.04689160     0.13788925     2.34365638
H     -3.30045814    -0.02107521     1.10968232
H     -2.59117184     1.55924821     1.43558221
