24
anthraquinone_parent/red1 q=-1 m=2 E=-18744.873361eV conf=0 model=uma-s-1p2p1
O       -0.13060144       2.60396918       0.81618049      -0.00031270       0.00620886       0.00194794
C       -0.07080250       1.41168262       0.44247435       0.00055047      -0.01132770      -0.00355677
C        1.20042462       0.74188100       0.18982299      -0.01435046       0.00083983       0.00143843
C        2.39936169       1.46038863       0.37275093      -0.00685581       0.00242161       0.00152212
C        3.61780094       0.87481485       0.14709272      -0.00218308       0.00905828       0.00387313
C        3.68515861      -0.46847071      -0.27490771      -0.00156686      -0.00932222      -0.00382311
C        2.53204933      -1.18600229      -0.45905931      -0.00633294      -0.00306213      -0.00126608
C        1.26794096      -0.60454201      -0.23302288      -0.01433771      -0.00240924      -0.00092549
C        0.07080304      -1.41168493      -0.44247252      -0.00056058       0.01121924       0.00351806
O        0.13060257      -2.60397298      -0.81617941       0.00030389      -0.00610399      -0.00191313
C       -1.20039903      -0.74211896      -0.18906768       0.01448025      -0.00117735      -0.00021178
C       -2.39928737      -1.46105192      -0.37062502       0.00671051      -0.00268733      -0.00052636
C       -3.61777220      -0.87508750      -0.14621300       0.00242075      -0.00957279      -0.00211054
C       -3.68518794       0.46874759       0.27402821       0.00137315       0.00977281       0.00203483
C       -2.53212306       1.18666444       0.45693296       0.00642789       0.00345761       0.00031343
C       -1.26796640       0.60477475       0.23226965       0.01424240       0.00279038      -0.00028871
H        2.31595572       2.48979781       0.69681662      -0.00582489       0.00350795       0.00382002
H        4.52919324       1.44282775       0.29250438       0.01704582       0.00381274       0.00215146
H        4.64829038      -0.93218365      -0.45312781       0.01735441      -0.00192506      -0.00276246
H        2.55207548      -2.21893655      -0.78201641      -0.00554989      -0.00418349      -0.00363146
H       -2.31586688      -2.49063328      -0.69413709       0.00600278      -0.00496580       0.00076473
H       -4.52915640      -1.44316832      -0.29139731      -0.01699899      -0.00473606       0.00067686
H       -4.64832863       0.93253121       0.45201878      -0.01742053       0.00280843      -0.00007650
H       -2.55216474       2.21977327       0.77933400       0.00538227       0.00557538      -0.00096852
