46
tempo/red q=-1 m=1 E=-23635.112150eV model=uma-s-1p1
C        7.04280386      -0.37435198       1.14362630       0.00721321       0.00801117       0.00486467
C        5.62516534      -0.14299030       0.69268616      -0.00604229      -0.00992407      -0.00290648
C        5.33720859       0.17740479      -0.62895553       0.00062657      -0.00075568      -0.00496432
C        4.02637485       0.33815066      -1.05314696      -0.00178448       0.00487743      -0.00075941
C        2.96659670       0.19575528      -0.16716254      -0.00327429      -0.00474615      -0.00438641
C        1.55160030       0.41396734      -0.63363501      -0.00269823      -0.00301791      -0.00214701
C        3.24807711      -0.12068451       1.15673317      -0.00248034       0.00269410      -0.00459146
C        4.55948330      -0.28460914       1.57639720      -0.00540956      -0.00608237       0.00181412
O        0.67226186      -0.36455172       0.12831699      -0.00150247       0.00681762       0.00664114
C       -0.70338339       0.03088026      -0.00594600      -0.00454423      -0.00347715       0.00414270
C       -1.50538408      -0.73095910       1.02124359      -0.01060014      -0.00034125       0.00153780
C       -2.99658240      -0.38161066       0.96204212      -0.00902827      -0.00294946      -0.00131467
C       -3.75870585      -1.39370500       1.82053854       0.00296787       0.00041069      -0.00208339
C       -3.27453750       1.01816030       1.54186214       0.00149544       0.00122249      -0.00132182
N       -3.49513015      -0.57427019      -0.41506162      -0.01167546      -0.00279724       0.00160206
O       -4.84336781      -0.20166175      -0.48141345      -0.00689464      -0.00347018       0.00265524
C       -2.74693975       0.10133555      -1.49203947       0.00059832      -0.00153098       0.00709572
C       -2.95644736       1.62654360      -1.54256834      -0.00168207       0.00384297       0.00003475
C       -3.28691587      -0.48214246      -2.79984178       0.00385039       0.00277150       0.01009790
C       -1.26015170      -0.25633614      -1.38583106       0.00432478      -0.00033063       0.00207890
H        7.17597476      -0.09297837       2.18829873      -0.00102710       0.00298067       0.01777745
H        7.31826835      -1.42768915       1.05015673      -0.00569462      -0.00076445      -0.00043069
H        7.74734147       0.20340875       0.54521021       0.00931175       0.00825730      -0.01144155
H        6.14753829       0.29222619      -1.34049122       0.01382174      -0.00435208       0.00133683
H        3.82144854       0.57034314      -2.09270541       0.00793695       0.00648697       0.00170389
H        1.29241198       1.48040399      -0.53119299       0.00907463      -0.00051753       0.00285885
H        1.48533825       0.17655000      -1.70259436       0.00004443      -0.01090887      -0.00105567
H        2.42596580      -0.24992261       1.84825452       0.00201505       0.00329942      -0.00826160
H        4.75913022      -0.53095473       2.61370213       0.00772958      -0.01049265       0.00238834
H       -0.75089598       1.10844794       0.20190812       0.00768236      -0.00571812      -0.00149288
H       -1.11415143      -0.53573637       2.02552234      -0.00436487       0.01041841      -0.00366592
H       -1.38661655      -1.79996673       0.81680886       0.01198000       0.00488680      -0.00281849
H       -3.60425403      -2.39905747       1.42280315      -0.00368337       0.00317732       0.00173197
H       -4.82214405      -1.16565776       1.76579842       0.01092054       0.00534845       0.00541062
H       -3.41442179      -1.35541095       2.85995850      -0.00353117      -0.00681275      -0.00564770
H       -3.28636691       0.98901256       2.63571855      -0.00100807       0.00074541       0.00059176
H       -2.53805976       1.76466108       1.24047847       0.00167722       0.00077987      -0.01225176
H       -4.25887034       1.31537172       1.17378991      -0.00106030      -0.00608647      -0.00253406
H       -2.32316702       2.17293101      -0.84193023      -0.00115304      -0.00459258       0.01010816
H       -2.75200272       2.01368987      -2.54554782      -0.00025365       0.00122772      -0.00663646
H       -4.00427727       1.80194573      -1.29023652      -0.00716444      -0.00133493       0.00080392
H       -3.17293737      -1.56839075      -2.78839083      -0.00365986       0.00648849      -0.00225094
H       -2.75027851      -0.06719554      -3.66054179      -0.00591188      -0.00870051       0.00416474
H       -4.34911865      -0.25221408      -2.86886792       0.00875903       0.00343084      -0.00450800
H       -0.70949022       0.28971673      -2.15952548      -0.01071461       0.01304262      -0.00504839
H       -1.13839274      -1.32785866      -1.57772388       0.00481393      -0.00151443       0.00107758
