13
SMD(acetonitrile)-opt r2scan/def2-svp q=0 m=1
C -1.88117765 -0.00983492 0.00000734
C -1.17508395 1.20060597 -0.00000162
C 0.22123202 1.21243973 -0.00002274
C 0.92829161 -0.00186809 -0.00003499
C 0.22741806 -1.21938704 -0.00002598
C -1.17086056 -1.21582711 -0.00000489
H -1.70711224 -2.17020293 0.00000186
H 0.78386995 -2.16346126 -0.00003543
O 2.27982993 0.05594461 -0.00005532
H 2.63465769 -0.84933364 -0.00006191
H 0.78186167 2.15195400 -0.00002987
H -1.71773649 2.15142419 0.00000779
H -2.97488211 -0.01218564 0.00002365
