29
SMD(acetonitrile)-opt r2scan/def2-svp q=0 m=2
C 1.73284492 -1.40227996 0.08567340
C 1.25999631 0.01955445 0.42527245
C 2.08741508 0.56634107 1.58980218
C 1.38448220 0.96077890 -0.78173611
C 0.31379238 0.73005081 -1.83884163
C -1.05751542 0.94835829 -1.21499886
C -1.34647157 0.00679448 -0.03672596
C -2.52868801 0.54417596 0.77160042
C -1.66057673 -1.41887255 -0.51563477
N -0.16543513 -0.04152451 0.88524787
O -0.36490113 -0.57579510 2.02477525
H 2.82499812 -1.40791902 -0.05909962
H 1.26600964 -1.79007695 -0.83177125
H 1.48747826 -2.08117437 0.91728016
H 2.07116547 -0.12211665 2.44588738
H 3.13035642 0.70152390 1.26333229
H 1.69759148 1.54277276 1.91931348
H 2.39786162 0.83993688 -1.20074370
H 1.30979938 2.00353358 -0.42302330
H 0.45944181 1.42776351 -2.68008347
H 0.39380070 -0.28722701 -2.26032470
H -1.86371725 0.81765169 -1.95667882
H -1.12129773 1.99133147 -0.85481616
H -2.28433969 1.52302646 1.21442306
H -2.80224955 -0.14601361 1.58149508
H -3.39671281 0.67148226 0.10607728
H -1.70599132 -2.09749911 0.35045078
H -2.63800920 -1.43510438 -1.02371376
H -0.90525977 -1.79933930 -1.21906520
