41
SMD(acetonitrile)-opt r2scan/def2-svp q=1 m=2
C 6.15321128 0.46883337 -1.91976412
C 5.19418815 0.12172620 -0.81682752
C 4.48816394 1.12777911 -0.13080784
C 3.57531966 0.80965518 0.87552273
C 3.33902077 -0.52911987 1.22837657
C 2.32597463 -0.87380370 2.29380234
C 4.03949329 -1.53675757 0.55119058
C 4.95624599 -1.21411645 -0.45447897
N 0.94571620 -0.65161146 1.83037480
C 0.38225701 -1.52500931 0.93799576
C -0.86828160 -1.31499787 0.42144098
C -1.64206433 -0.16563696 0.78540300
C -2.95378408 0.08009019 0.25732784
C -3.72721713 1.22909474 0.61893306
C -4.97891167 1.43964302 0.10015221
N -5.54435694 0.56583735 -0.78583684
C -6.88960877 0.78001423 -1.30834621
C -4.84199527 -0.54869091 -1.16025619
C -3.58828374 -0.80559939 -0.67194018
C -1.00977904 0.71753308 1.71866529
C 0.24465451 0.46030316 2.20784897
H 6.91899898 -0.31057641 -2.04955038
H 5.62264910 0.56912701 -2.88319631
H 6.65664497 1.42906559 -1.72928558
H 4.66469346 2.17767811 -0.38828703
H 3.04204203 1.61115824 1.39856692
H 2.41633518 -1.93038970 2.58440252
H 2.46417151 -0.25415425 3.19064922
H 3.87190648 -2.58513339 0.82032227
H 5.49961812 -2.01513625 -0.96699435
H 0.99070874 -2.39154221 0.66999161
H -1.25001639 -2.06146554 -0.27630317
H -3.34756226 1.97612478 1.31710457
H -5.58261894 2.31000165 0.36445035
H -6.87763159 0.70293073 -2.40464288
H -7.23424263 1.77872360 -1.01725525
H -7.57771234 0.02341004 -0.90138723
H -5.34424039 -1.21130813 -1.86831722
H -3.09481685 -1.71296743 -1.02239380
H -1.50619608 1.62094731 2.07496530
H 0.74201001 1.11915369 2.92231295
