28
conf 0 ff=MMFF E=62.124 Rg=3.69 smiles=COc1ccc2c(c1)C(=O)c1ccccc1C2=O
C     -4.78886940     0.31263576    -0.69600535
O     -4.20733571    -0.87118143    -0.16163324
C     -2.84981218    -0.87870571    -0.00250846
C     -2.33152320    -2.06464903     0.52541003
C     -0.95935209    -2.21069442     0.74091814
C     -0.09082556    -1.16136393     0.42646802
C     -0.60101086     0.02355673    -0.10011005
C     -1.98123207     0.16711747    -0.31556351
C      0.30547048     1.14010536    -0.43673020
O     -0.14241336     2.18272662    -0.89994864
C      1.75606198     0.98480335    -0.20854809
C      2.62401683     2.03807610    -0.52461657
C      3.99676240     1.89991133    -0.31215356
C      4.50557105     0.71329257     0.21493480
C      3.64268416    -0.33757143     0.53063350
C      2.26470784    -0.20121023     0.31828198
C      1.35957609    -1.31798420     0.65514783
O      1.80568525    -2.36106982     1.11834742
H     -4.42200235     0.50966859    -1.70872496
H     -4.61427888     1.16971075    -0.03725316
H     -5.86991821     0.15497865    -0.75810496
H     -3.00449821    -2.88383074     0.77147125
H     -0.57597965    -3.14242576     1.15293396
H     -2.34833076     1.10297485    -0.72733066
H      2.23471505     2.96769348    -0.93647843
H      4.66925114     2.71888826    -0.55818537
H      5.57535572     0.60544710     0.38057560
H      4.04752448    -1.26090027     0.94179876
