28
conf 1 ff=MMFF E=62.655 Rg=3.79 smiles=COc1ccc2c(c1)C(=O)c1ccccc1C2=O
C     -5.19174461    -0.53841194    -0.09531941
O     -3.95659902    -1.20642236    -0.32186407
C     -2.81405277    -0.47363495    -0.16223308
C     -2.74774884     0.87168170     0.20305590
C     -1.50664333     1.50460482     0.33189264
C     -0.32467352     0.79319587     0.09545115
C     -0.38676814    -0.54875461    -0.26907155
C     -1.63067957    -1.17990233    -0.39732462
C      0.85146468    -1.31248691    -0.52182017
O      0.79935528    -2.49384884    -0.84275903
C      2.15582481    -0.63376176    -0.38279147
C      3.33748982    -1.34790467    -0.62004501
C      4.57475786    -0.71449429    -0.49100677
C      4.63595090     0.62999522    -0.12574924
C      3.45998807     1.34381265     0.11121136
C      2.21725424     0.71014103    -0.01770928
C      0.97858810     1.47290608     0.23485505
O      1.02966914     2.65449327     0.55598785
H     -5.99754480    -1.25933355    -0.26363406
H     -5.32934946     0.28647948    -0.80215855
H     -5.26731398    -0.18957966     0.93986649
H     -3.64084182     1.45829750     0.39511763
H     -1.46746848     2.55478056     0.61748866
H     -1.68398679    -2.22968098    -0.68232736
H      3.29792909    -2.39787488    -0.90557699
H      5.49105236    -1.27104343    -0.67574055
H      5.60015626     1.12359491    -0.02518955
H      3.51593452     2.39315207     0.39599922
