56
SMD(acetonitrile)-opt r2scan/def2-svp q=2 m=1
C 4.33478731 -0.25086759 0.41480529
N 2.87745945 -0.20742579 0.37294125
C 2.16750674 -1.26436968 -0.12651721
C 0.80552158 -1.21268711 -0.26943415
C 0.06187480 -0.04514873 0.09279888
C -1.36216366 0.04452093 -0.06845516
C -2.14564957 -1.02865286 -0.59810463
C -3.50161352 -0.91078191 -0.75982000
N -4.16784444 0.23522861 -0.42226721
C -5.59186883 0.37113980 -0.70795952
C -3.45821635 1.29061513 0.08075582
C -2.10171437 1.22335403 0.26407975
C 0.84795275 1.03551960 0.60301474
C 2.20896130 0.93170433 0.72815427
H 4.66407133 -1.28561262 0.57123474
H 4.75498661 0.12216845 -0.53307502
H 4.69510952 0.37724743 1.23912767
H 2.75262358 -2.14537487 -0.39826911
H 0.31410981 -2.10282555 -0.66405930
H -1.69326878 -1.97943138 -0.88269525
H -4.11659275 -1.71863257 -1.16187840
H -6.07904105 -0.60707762 -0.60968363
H -6.04073532 1.07696837 0.00177074
H -5.74076529 0.74640456 -1.73324655
H -4.03960630 2.18144280 0.32733517
H -1.61340280 2.10514627 0.68063369
H 0.39137184 1.97442835 0.91862086
H 2.82587110 1.74493037 1.11616591
C -6.03194950 -0.76959244 2.61768302
N -4.57561912 -0.84752725 2.64202129
C -3.83710273 0.19517304 3.13019311
C -2.47534509 0.11239022 3.26203390
C -1.76154088 -1.07171708 2.89575855
C -0.33854730 -1.19259321 3.04449893
C 0.47304739 -0.13977416 3.57418176
C 1.82639328 -0.29097581 3.72975028
N 2.46405242 -1.44963816 3.38157830
C 3.88510606 -1.62687795 3.65950386
C 1.72777510 -2.48443111 2.87326351
C 0.37195017 -2.38503575 2.69939043
C -2.57682817 -2.13635465 2.39616749
C -3.93633788 -2.00295680 2.28592171
H -6.33836325 0.26684373 2.42820420
H -6.41874032 -1.41820263 1.82193470
H -6.44754209 -1.09721968 3.58420783
H -4.39931938 1.09030141 3.40400355
H -1.96011723 0.99195172 3.64994168
H 0.04477324 0.82014227 3.86544395
H 2.46172302 0.50000693 4.13359222
H 4.02544350 -2.07335491 4.65704648
H 4.32492116 -2.29055107 2.90433608
H 4.38738853 -0.65221518 3.62787949
H 2.28732163 -3.38635432 2.61660765
H -0.13898141 -3.25211496 2.27898624
H -2.14471276 -3.08661114 2.08010580
H -4.57507911 -2.80394484 1.90796293
