14
SMD(acetonitrile)-opt r2scan/def2-svpd q=-1 m=2
C -0.68700266 -1.23376325 -0.00002368
C 0.68700985 -1.23377236 -0.00002890
C 1.43055749 -0.00000540 -0.00003420
C 0.68701330 1.23376397 -0.00003441
C -0.68699921 1.23377493 -0.00002918
C -1.43054448 0.00000704 -0.00002353
C -2.83093144 0.00000923 -0.00001904
N -4.01087384 0.00001076 -0.00001386
H -1.22999362 2.18209397 -0.00002892
H 1.23001534 2.18207850 -0.00003818
C 2.83094500 -0.00000768 -0.00004091
N 4.01088736 -0.00000955 -0.00004283
H 1.23000384 -2.18209164 -0.00002844
H -1.23000513 -2.18207753 -0.00001918
