41
viologen/ox1 q=1 m=2 E=-23001.872649eV model=uma-s-1p2p1
C        6.11648958       0.50350617       2.16778559      -0.00830754       0.00561979       0.00286154
C        5.12790223       0.18804990       1.08091454      -0.00292398      -0.00583749       0.00384107
C        4.79069715      -1.12564384       0.77683976       0.00129660      -0.00727839      -0.00387082
C        3.90762597      -1.41518995      -0.25346285      -0.00832095      -0.00519080       0.00346165
C        3.33531943      -0.39363090      -0.99872649       0.00875491      -0.00051087      -0.00433683
C        2.35314779      -0.70298111      -2.09461323       0.00039786      -0.00464216      -0.00136924
C        3.66474547       0.92477017      -0.69798596      -0.00285339       0.00186425       0.01588964
C        4.54712197       1.20897368       0.32873951       0.00965238       0.00057558       0.00521502
N        0.95348699      -0.54537268      -1.64741525      -0.00626453       0.00376241       0.00650207
C        0.25956787       0.58388468      -1.93185568       0.00876740       0.01066229       0.01038825
C       -0.99516835       0.79318934      -1.45987999      -0.00455286      -0.00170817      -0.00621475
C       -1.64672424      -0.17421601      -0.64071883       0.01058689      -0.00217836      -0.01525873
C       -2.96244408       0.01219662      -0.14695408       0.00227494       0.01462150      -0.00165845
C       -3.66520755      -0.98522780       0.59238799       0.01549369       0.00502432      -0.00696322
C       -4.92592985      -0.76837020       1.04500047       0.00910626       0.01389999      -0.00295100
N       -5.57720985       0.40396403       0.82280717       0.00771529       0.00140672       0.01556875
C       -6.93237375       0.63423833       1.32210214      -0.00732027      -0.00450572      -0.00491200
C       -4.94357044       1.38486538       0.12191603      -0.00873111      -0.00215978       0.01237975
C       -3.68772111       1.22349552      -0.35757298      -0.01001460       0.00297509      -0.00911840
C       -0.87537427      -1.34083116      -0.36161463       0.00001016       0.00154747      -0.00154078
C        0.38033107      -1.48720624      -0.85461881      -0.00037375      -0.00293577      -0.00881745
H        5.79675251       1.36764164       2.74895681       0.00759600       0.01560025       0.00864236
H        6.24296872      -0.33838872       2.84659725      -0.00302974      -0.00121759      -0.00936420
H        7.09361290       0.73755771       1.74059114      -0.00796425       0.00046241       0.00357889
H        5.23009094      -1.93459160       1.34747145       0.00447474       0.00112770      -0.00513221
H        3.67561439      -2.44943000      -0.48321761       0.00591412      -0.00369896      -0.00868931
H        2.48576865      -0.03763810      -2.94618369      -0.00049469      -0.00376489      -0.00397241
H        2.47263246      -1.72545766      -2.45016428      -0.00591156      -0.01729524       0.00758375
H        3.23811846       1.73884178      -1.27475184       0.00557321      -0.01311593      -0.00167468
H        4.79943519       2.23967054       0.54654385       0.00306116       0.00291328       0.00246807
H        0.76468922       1.30432451      -2.55892882      -0.00391455      -0.00117534      -0.01037838
H       -1.47885970       1.71250578      -1.74709175      -0.01106980       0.00473614      -0.00048379
H       -3.22408838      -1.94563344       0.80680611       0.00935541      -0.00502384      -0.00258662
H       -5.47268070      -1.51487980       1.60179235       0.00011036      -0.00614459       0.00620528
H       -7.25984292      -0.23691827       1.88065667       0.00530577      -0.00538151       0.00522448
H       -7.61288195       0.79784529       0.48882589      -0.01239536       0.00287494      -0.00928536
H       -6.94392954       1.50253778       1.97845458       0.00151537      -0.00667880       0.00242110
H       -5.50388777       2.29744700      -0.02288647      -0.00730279       0.00174643      -0.00134300
H       -3.25640914       2.05210161      -0.89553789      -0.00267850       0.01056708       0.00227493
H       -1.25929572      -2.13524411       0.25865370       0.00243739      -0.00115518       0.00451813
H        0.98748106      -2.35475665      -0.63874333      -0.00497557      -0.00038823       0.00089706
