28
pyridinium/ox q=1 m=1 E=-15192.334311eV conf=0 model=uma-s-1p2p1
C       -4.35298007       0.14408945      -1.26792913       0.00386225       0.00697444       0.00294885
C       -3.00544345       0.23255573      -0.61085143      -0.00153748       0.01041839       0.00160427
C       -2.50020595       1.45266216      -0.17551664       0.00922970      -0.00831811      -0.00241856
C       -1.27713720       1.52805529       0.47558693      -0.00006863       0.01738692      -0.00168350
C       -0.53787894       0.37683158       0.70813136       0.00544848      -0.01426280      -0.01138570
C        0.77375863       0.44702794       1.43543341      -0.00238942       0.00434828      -0.00001840
C       -1.03029614      -0.84840112       0.26729156      -0.00798135       0.00644222      -0.00428786
C       -2.24538742      -0.91665003      -0.38814975      -0.00067943      -0.00796433       0.00122794
N        1.90403301      -0.00651836       0.56467218      -0.00180824       0.00709793       0.00339295
C        2.18802895       0.70478420      -0.53917562      -0.00053926       0.00498086       0.00119467
C        3.20472073       0.31978527      -1.37968577       0.01066277       0.00146585       0.00127887
C        3.92791316      -0.82813747      -1.08188580      -0.00842870       0.00156189      -0.00383047
C        3.61011891      -1.55843642       0.05228682       0.00685353       0.00186675       0.00003730
C        2.58987564      -1.11838535       0.86590992       0.01021754      -0.00312163       0.00983078
H       -4.39647097      -0.68396054      -1.97405335      -0.01069434       0.00576258      -0.00217711
H       -5.12551963      -0.02446685      -0.51516003       0.00599910      -0.00008584       0.00191299
H       -4.60188924       1.06511005      -1.79290939       0.00173797       0.00313575      -0.00034164
H       -3.07235927       2.35687800      -0.34236256       0.00065050      -0.00457081      -0.00519705
H       -0.91090721       2.48857426       0.81944128      -0.00040055       0.00289361      -0.00540103
H        1.00137536       1.46476934       1.74844606      -0.00122378       0.00473558       0.01449099
H        0.79346691      -0.19358555       2.31529293       0.00238160      -0.00741180      -0.00873331
H       -0.46846353      -1.75958960       0.44455150       0.00294199      -0.00475795      -0.00240854
H       -2.62047720      -1.87560963      -0.72465172       0.00262751      -0.01332210       0.01012023
H        1.56643338       1.57113005      -0.71654368      -0.00589965       0.00416473      -0.00248070
H        3.41929411       0.91160480      -2.25723868      -0.00787172      -0.00235010      -0.00257376
H        4.72935683      -1.15154306      -1.73160124      -0.00835980      -0.00236019      -0.00146051
H        4.14088314      -2.46221646       0.31220307       0.00045960      -0.00848080       0.00418170
H        2.29615754      -1.63635771       1.76707288      -0.00519035      -0.00622926       0.00217647
