15
methylpyridinium/ox q=1 m=1 E=-7835.357469eV conf=0 model=uma-s-1p2p1
C        2.15725439       0.05818290       0.04150666      -0.00369627       0.00215322      -0.00188428
N        0.67845978       0.01674032       0.02966330       0.00144741       0.00720173       0.00734152
C       -0.01797619       1.16371812       0.11424678      -0.00088863      -0.00240956      -0.00537500
C       -1.39302211       1.15608081       0.07935730      -0.00015594      -0.00252653       0.00733708
C       -2.05925799      -0.05495591      -0.04587618       0.00023849       0.00167979      -0.00047961
C       -1.32464840      -1.22861573      -0.14031277      -0.00681508       0.00660194      -0.00889324
C        0.04887981      -1.16401578      -0.10137477       0.00442430       0.00374459       0.00246638
H        2.48227364       0.90211867       0.64207748       0.00188083      -0.00209936      -0.00559242
H        2.52271999       0.16270213      -0.97769835      -0.00207221       0.00153511       0.00092299
H        2.53310649      -0.86141155       0.47940491      -0.00223222      -0.00175381      -0.00221442
H        0.56329059       2.06953250       0.20792973       0.00129495      -0.00966062       0.00206126
H       -1.92744652       2.09166704       0.15240831       0.00109179      -0.00393879      -0.00054806
H       -3.14040662      -0.08392611      -0.06795783       0.00277677      -0.00012563      -0.00450932
H       -1.80456285      -2.19077775      -0.24132678      -0.00224285      -0.00306864       0.00367839
H        0.68133601      -2.03703970      -0.17204780       0.00494852       0.00266657       0.00568874
