13
SMD(acetonitrile)-opt r2scan/def2-svp q=0 m=1
C -0.67254985 1.06415476 0.06666853
C 0.67062364 1.06566520 0.06644449
C 1.22842542 -0.32283843 -0.12158754
C 0.00191774 -1.22506175 0.13714061
C -1.22678355 -0.32577028 -0.12148124
H -1.61538431 -0.44144909 -1.15334549
H -2.07379999 -0.55339528 0.54879926
H 0.00296800 -2.14417291 -0.46933115
H 0.00237187 -1.53269109 1.19678602
H 2.07582921 -0.54818830 0.54898806
H 1.61761250 -0.43778725 -1.15330628
H 1.29965384 1.95983777 0.13640797
H -1.30372272 1.95680598 0.13689205
