42
conf 3 ff=MMFF E=74.151 Rg=5.25 smiles=Cc1ccc(CNc2ccc3c(c2)C(=O)c2ccccc2C3=O)cc1
C      7.80416316    -0.05538252    -0.07011375
C      6.31334562     0.09075899     0.00671518
C      5.68431112     0.30763003     1.23784076
C      4.29879164     0.47504239     1.30726457
C      3.51974514     0.44473195     0.14325402
C      2.01976028     0.61146022     0.21076487
C      4.15327594     0.23397619    -1.08935273
C      5.53806833     0.06621213    -1.15765280
N      1.38365659    -0.67701362    -0.03488309
C      0.00678731    -0.82518351     0.12692482
C     -0.52063230    -2.12353601     0.19173405
C     -1.89766802    -2.34985979     0.28264772
C     -2.78103480    -1.26902420     0.28323545
C     -2.28173511     0.02528977     0.18245973
C     -0.89699792     0.24278578     0.08997150
C     -3.20210090     1.18041582     0.16555236
O     -2.76434761     2.32271691     0.08957427
C     -4.65737556     0.94229630     0.24646967
C     -5.54020852     2.02980803     0.22181808
C     -6.91719878     1.81396269     0.29943526
C     -7.41553689     0.51552335     0.40198863
C     -6.53790173    -0.56968893     0.42705361
C     -5.15568211    -0.35545114     0.34896239
C     -4.23469396    -1.50911189     0.37627501
O     -4.67063840    -2.65014544     0.47522633
H      8.09119018    -0.69572624    -0.91083050
H      8.27018502     0.92648148    -0.19771591
H      8.19865998    -0.51915992     0.84011135
H      6.27053816     0.34559922     2.15341929
H      3.83360195     0.63213055     2.27791100
H      1.71536626     1.34923880    -0.54158132
H      1.73438636     1.00089006     1.19596995
H      3.56363393     0.19564602    -2.00348925
H      6.00657207    -0.08782101    -2.12713320
H      1.91563199    -1.44997856     0.35905436
H      0.14731756    -2.98272709     0.16829630
H     -2.27156156    -3.37027186     0.34233961
H     -0.54066554     1.26457366    -0.01495851
H     -5.15894703     3.04649816     0.14207434
H     -7.60104917     2.65977948     0.27980477
H     -8.48858651     0.34713990     0.46242691
H     -6.93442620    -1.58050614     0.50720829
