42
conf 0 ff=MMFF E=74.137 Rg=5.25 smiles=Cc1ccc(CNc2ccc3c(c2)C(=O)c2ccccc2C3=O)cc1
C      7.79391620     0.33200890     0.31056423
C      6.29934183     0.45672921     0.33259298
C      5.58466249     0.62308138    -0.85862132
C      4.19075810     0.70808411    -0.84158686
C      3.48529507     0.62279259     0.36671428
C      1.97662054     0.70006843     0.37578075
C      4.20151298     0.43226849     1.55564448
C      5.59615177     0.34790134     1.53760899
N      1.43090720    -0.54301685    -0.15519412
C      0.05916929    -0.78764598    -0.10692622
C     -0.39247171    -2.09697762    -0.32998871
C     -1.75635184    -2.40392644    -0.36643603
C     -2.70154734    -1.38947884    -0.20504529
C     -2.27598507    -0.07828887    -0.01963027
C     -0.90382372     0.22070809     0.01401310
C     -3.26166406     1.01054690     0.13704722
O     -2.88960364     2.16501898     0.31315114
C     -4.70237149     0.69021764     0.08390508
C     -5.64622610     1.71626420     0.22192298
C     -7.01004686     1.42221923     0.17452876
C     -7.43448841     0.10667924    -0.00988250
C     -6.49597297    -0.91745428    -0.14734901
C     -5.12681995    -0.62463141    -0.10042806
C     -4.14110607    -1.71407782    -0.24661711
O     -4.51252846    -2.87181115    -0.39990371
H      8.23135664     0.71297282     1.23940016
H      8.22237568     0.91399511    -0.51220273
H      8.08007291    -0.71717258     0.18869538
H      6.10834675     0.68559575    -1.80992069
H      3.65050546     0.83171982    -1.77839445
H      1.62120311     0.87206236     1.39943384
H      1.66591756     1.55701938    -0.23423200
H      3.67904958     0.34530093     2.50575707
H      6.13134018     0.19600776     2.47242671
H      1.98868237    -1.35216733     0.10890839
H      0.32581388    -2.90048554    -0.48279476
H     -2.07123340    -3.43272909    -0.53079964
H     -0.60436502     1.25903792     0.13334947
H     -5.32282725     2.74579673     0.36633900
H     -7.74134242     2.22045989     0.28158811
H     -8.49726307    -0.12262739    -0.04689607
H     -6.83496074    -1.94206600    -0.29110361
