42
conf 6 ff=MMFF E=74.463 Rg=5.28 smiles=Cc1ccc(CNc2ccc3c(c2)C(=O)c2ccccc2C3=O)cc1
C      7.58994777     1.31397997    -0.14067638
C      6.23715358     0.67433556    -0.03761938
C      5.55111920     0.66022976     1.18159151
C      4.30499366     0.03822413     1.28514794
C      3.72852701    -0.59454493     0.17497589
C      2.37476775    -1.25447979     0.29154970
C      4.42011512    -0.58439843    -1.04336069
C      5.66712739     0.03770217    -1.14580788
N      1.34761742    -0.22753748     0.40655906
C     -0.00223045    -0.57541582     0.36723020
C     -0.48120211    -1.85059328     0.69057318
C     -1.85330246    -2.12770801     0.70972090
C     -2.77599861    -1.11704722     0.43050930
C     -2.32282352     0.16548686     0.14387492
C     -0.94591791     0.43431407     0.12708220
C     -3.28291411     1.25123331    -0.13886945
O     -2.88575442     2.37970802    -0.40462981
C     -4.73014042     0.95862300    -0.10225298
C     -5.65117130     1.98246386    -0.35930154
C     -7.02079933     1.71434977    -0.32834848
C     -7.47378990     0.42687598    -0.04187715
C     -6.55807651    -0.59509458     0.21429671
C     -5.18317083    -0.32820942     0.18407831
C     -4.22158750    -1.41514099     0.45609962
O     -4.61723069    -2.54924093     0.69934680
H      7.76252464     1.70259426    -1.14983995
H      7.67660971     2.15843869     0.55113531
H      8.36866422     0.58207831     0.09476438
H      5.97988892     1.13857295     2.05936507
H      3.77728651     0.05252832     2.23704481
H      2.37923634    -1.90595918     1.17388622
H      2.19256861    -1.88462021    -0.58792415
H      3.99450712    -1.06193937    -1.92312891
H      6.19042285     0.02512132    -2.09943983
H      1.56168897     0.59481621    -0.15459104
H      0.20134690    -2.65785801     0.94168026
H     -2.19370357    -3.13234366     0.95466232
H     -0.60638805     1.44917361    -0.07593587
H     -5.30526968     2.99011770    -0.58385245
H     -7.73425544     2.51095297    -0.52794451
H     -8.54110388     0.21788633    -0.01768884
H     -6.91928300    -1.59767583     0.43726028
