42
conf 7 ff=MMFF E=76.517 Rg=4.69 smiles=Cc1ccc(CNc2ccc3c(c2)C(=O)c2ccccc2C3=O)cc1
C      5.49433036     0.76171500     2.62416387
C      4.80188702     0.58860097     1.30497468
C      4.07456794    -0.57523173     1.03364324
C      3.40137925    -0.72388544    -0.18150591
C      3.43823376     0.29138881    -1.14612082
C      2.69419457     0.14390082    -2.45258005
C      4.14910347     1.46622986    -0.86179916
C      4.82256387     1.61370480     0.35329460
N      1.37238278     0.76070922    -2.36999872
C      0.29320142     0.08072044    -1.79998567
C      0.11935077    -1.30537869    -1.88628466
C     -1.01426873    -1.93093698    -1.35353089
C     -2.01542929    -1.16874826    -0.74808369
C     -1.88468529     0.21375362    -0.69166382
C     -0.74517263     0.83184989    -1.22799748
C     -2.94182500     1.03977942    -0.07458829
O     -2.82911270     2.25906077    -0.02317626
C     -4.13826642     0.37681629     0.48264578
C     -5.14864594     1.14937014     1.06997246
C     -6.28258903     0.53101766     1.59963937
C     -6.41089109    -0.85655932     1.54481597
C     -5.40552061    -1.62858688     0.96018956
C     -4.26674378    -1.01014788     0.42796212
C     -3.20838606    -1.83444711    -0.18888649
O     -3.31784662    -3.05421604    -0.23538941
H      4.81225915     1.21876940     3.34763357
H      5.83315935    -0.20272871     3.01694299
H      6.37920267     1.39844981     2.52024689
H      4.02386435    -1.37465045     1.76961583
H      2.83954597    -1.63645744    -0.36587465
H      3.25994352     0.66464579    -3.23555816
H      2.66755190    -0.90185502    -2.77578185
H      4.18090080     2.27759337    -1.58574515
H      5.36266741     2.53654722     0.55320221
H      1.44485579     1.71114964    -2.01195938
H      0.85330424    -1.93303880    -2.38246399
H     -1.11355785    -3.01248655    -1.42703138
H     -0.66647792     1.91734781    -1.19006298
H     -5.05567750     2.23315767     1.11653875
H     -7.06598797     1.13289504     2.05509316
H     -7.29455927    -1.33851452     1.95742337
H     -5.51280666    -2.71130364     0.92087164
