42
conf 8 ff=MMFF E=76.537 Rg=4.69 smiles=Cc1ccc(CNc2ccc3c(c2)C(=O)c2ccccc2C3=O)cc1
C     -5.46996705     1.87528690     2.28389878
C     -4.75934707     1.10319415     1.21217723
C     -3.95671144     0.00607305     1.54270411
C     -3.31772048    -0.73199483     0.54330099
C     -3.48194922    -0.39602160    -0.80680069
C     -2.77597535    -1.17800079    -1.88950556
C     -4.29229412     0.70027686    -1.13529877
C     -4.93146834     1.43729976    -0.13530495
N     -1.51733579    -0.53435243    -2.25818827
C     -0.35844705    -0.73053429    -1.50283642
C     -0.05621511    -1.92930085    -0.84666770
C      1.15029822    -2.09660396    -0.15632374
C      2.09512934    -1.06860823    -0.13788717
C      1.83508946     0.11358140    -0.82082200
C      0.62329239     0.27233322    -1.50967830
C      2.82998064     1.20478635    -0.83148626
O      2.60350102     2.24828977    -1.43298884
C      4.10326695     1.02332977    -0.10531876
C      5.05553130     2.05087420    -0.10819519
C      6.26142167     1.88809512     0.57595791
C      6.51955152     0.70238171     1.26319264
C      5.57232446    -0.32295924     1.26763382
C      4.36152024    -0.16178266     0.58168569
C      3.36543892    -1.25165516     0.59136633
O      3.58925419    -2.29339239     1.19690635
H     -4.89208240     1.87498256     3.21410371
H     -5.60629616     2.92059369     1.98728789
H     -6.45134694     1.43114781     2.47663732
H     -3.81848966    -0.27893813     2.58335351
H     -2.68675906    -1.57068859     0.82775454
H     -3.41756457    -1.19656208    -2.77963108
H     -2.66077973    -2.22934619    -1.60631544
H     -4.43368349     0.98653551    -2.17524149
H     -5.56253080     2.27788387    -0.41546068
H     -1.66785018     0.45237063    -2.45953889
H     -0.74419540    -2.76898753    -0.86713170
H      1.34969455    -3.03749285     0.35355173
H      0.44270206     1.19857537    -2.05318252
H      4.86124944     2.97945984    -0.64241319
H      6.99947656     2.68726048     0.57225204
H      7.45928724     0.57537735     1.79625898
H      5.78099925    -1.24585628     1.80619403
