42
conf 4 ff=MMFF E=74.151 Rg=5.25 smiles=Cc1ccc(CNc2ccc3c(c2)C(=O)c2ccccc2C3=O)cc1
C      7.80418575     0.21098648     0.32509959
C      6.30710560     0.30252601     0.33812856
C      5.61133860     0.37495515     1.55017336
C      4.21895872     0.49164834     1.56345682
C      3.49925040     0.55447825     0.36311594
C      1.99273872     0.66720554     0.36843240
C      4.19936138     0.48842953    -0.84956122
C      5.59097085     0.37125316    -0.86180071
N      1.41607572    -0.60889312    -0.03673767
C      0.03910895    -0.81487543     0.03694375
C     -0.44397811    -2.12873954    -0.05515049
C     -1.81482139    -2.40529866    -0.05975909
C     -2.73532581    -1.35769927     0.00146575
C     -2.27839011    -0.04509057     0.05597993
C     -0.89946574     0.22308451     0.05856734
C     -3.23762378     1.07701432     0.10523661
O     -2.83789313     2.23406168     0.16615310
C     -4.68564348     0.78733851     0.08524749
C     -5.60460669     1.84414549     0.12197592
C     -6.97512404     1.57935812     0.10502217
C     -7.43104112     0.26249733     0.05189410
C     -6.51736837    -0.79222439     0.01553824
C     -5.14155034    -0.52882716     0.03213382
C     -4.18226156    -1.65050944    -0.00650136
O     -4.58136671    -2.80856260    -0.04424578
H      8.24028655     1.21463281     0.32014142
H      8.17015092    -0.32996191     1.20411524
H      8.15478361    -0.33199497    -0.55891361
H      6.15043745     0.33876293     2.49433941
H      3.70160461     0.53589689     2.51929002
H      1.69921075     1.46741943    -0.32185279
H      1.64573635     0.94621386     1.37115955
H      3.65679825     0.52403225    -1.79250903
H      6.11146638     0.33005169    -1.81600102
H      1.95538019    -1.40090493     0.30607999
H      0.25468877    -2.96024653    -0.12847507
H     -2.15437734    -3.43753517    -0.12132104
H     -0.57526384     1.26071393     0.07439402
H     -5.25657247     2.87492901     0.16365330
H     -7.68705843     2.40142479     0.13327466
H     -8.49903818     0.05598173     0.03861408
H     -6.88086786    -1.81767805    -0.02595981
