42
conf 9 ff=MMFF E=77.676 Rg=4.53 smiles=Cc1ccc(CNc2ccc3c(c2)C(=O)c2ccccc2C3=O)cc1
C      5.44775379     1.54521008    -1.81962639
C      4.64309552     0.81378960    -0.78700170
C      4.41432571    -0.56050280    -0.90876033
C      3.63381498    -1.23506501     0.03353621
C      3.04910487    -0.54682805     1.10614493
C      2.23247194    -1.27045631     2.15252632
C      3.28030662     0.83124789     1.22248723
C      4.06025603     1.50621032     0.27943128
N      1.33252845    -2.26406001     1.57135352
C      0.06599443    -1.92782704     1.09667795
C     -0.81737473    -2.96978838     0.77411385
C     -2.07845281    -2.71821829     0.22444691
C     -2.47335772    -1.40508143    -0.03549642
C     -1.60317700    -0.35800615     0.24809839
C     -0.33624115    -0.62211946     0.79413031
C     -2.00359956     1.03831152    -0.02224620
O     -1.25992528     1.96850999     0.26731867
C     -3.32064963     1.30238013    -0.63631163
C     -3.69881187     2.61991332    -0.92607910
C     -4.94325759     2.87924514    -1.50300827
C     -5.81208376     1.82705562    -1.79068495
C     -5.43807434     0.51351886    -1.50210267
C     -4.18928667     0.25098766    -0.92392371
C     -3.80251005    -1.14115651    -0.62092626
O     -4.57375102    -2.06498758    -0.85281170
H      6.21733893     0.89458992    -2.24818511
H      5.96036602     2.40610850    -1.37768070
H      4.79383019     1.89695011    -2.62349311
H      4.83968460    -1.11739388    -1.74035087
H      3.46889549    -2.30438841    -0.08071288
H      2.93966305    -1.78993014     2.81136352
H      1.67837330    -0.57177125     2.79138280
H      2.84359480     1.39601878     2.04332314
H      4.20741786     2.57898784     0.38279259
H      1.33870994    -3.14018354     2.08533384
H     -0.52269499    -4.00368946     0.94365638
H     -2.73981838    -3.55096897    -0.00691732
H      0.32971310     0.21762047     0.97297561
H     -3.02609776     3.44665317    -0.70393333
H     -5.23438491     3.90302763    -1.72767349
H     -6.78195489     2.02887886    -2.24010646
H     -6.12173550    -0.30279274    -1.72920921
