42
conf 2 ff=MMFF E=74.137 Rg=5.25 smiles=Cc1ccc(CNc2ccc3c(c2)C(=O)c2ccccc2C3=O)cc1
C     -7.77657734    -0.64771706     0.04230210
C     -6.29941845    -0.47653942    -0.15389333
C     -5.46691037    -1.59418567    -0.27730251
C     -4.08761332    -1.43587463    -0.42883557
C     -3.51461030    -0.15682492    -0.45426897
C     -2.02013769     0.00623067    -0.60298677
C     -4.34743199     0.96004969    -0.30654513
C     -5.72737600     0.80062504    -0.15554873
N     -1.37073662    -0.37754047     0.64440797
C     -0.00365768    -0.16798346     0.82052498
C      0.52153695    -0.25169955     2.11869567
C      1.89249726    -0.12272620     2.36272310
C      2.77325324     0.06759910     1.29661300
C      2.27797373     0.11659058    -0.00223232
C      0.89941107    -0.01550033    -0.23776326
C      3.19647569     0.30140868    -1.14410320
O      2.76161658     0.35758103    -2.28865064
C      4.64609457     0.42285322    -0.88929299
C      5.52759187     0.58903309    -1.96541023
C      6.89916379     0.70626107    -1.73354485
C      7.39339317     0.65847172    -0.43037373
C      6.51706396     0.49325879     0.64354928
C      5.14029605     0.37507715     0.41318336
C      4.22064460     0.20070930     1.55499517
O      4.65251996     0.16735115     2.70136766
H     -8.13615706    -1.54909242    -0.46509896
H     -8.00559568    -0.72691780     1.10944691
H     -8.32713733     0.20139857    -0.37615773
H     -5.88633536    -2.59751641    -0.25414901
H     -3.45426091    -2.31663325    -0.51769299
H     -1.78508549     1.04746520    -0.85666058
H     -1.67959049    -0.62492663    -1.43285716
H     -3.92811041     1.96374966    -0.30518105
H     -6.35435101     1.68188334    -0.03863135
H     -1.92106499    -0.11892017     1.46040062
H     -0.14320309    -0.42400755     2.96328994
H      2.26425779    -0.18190953     3.38394441
H      0.54747613    -0.00001447    -1.26632921
H      5.14950865     0.62746470    -2.98568194
H      7.58199956     0.83490888    -2.57058011
H      8.46222292     0.74976926    -0.24951638
H      6.91036403     0.45679006     1.65813805
