42
conf 1 ff=MMFF E=74.137 Rg=5.25 smiles=Cc1ccc(CNc2ccc3c(c2)C(=O)c2ccccc2C3=O)cc1
C     -7.80065109     0.21176757     0.02693789
C     -6.30966720     0.35098119     0.11284139
C     -5.59258146    -0.31342625     1.11373208
C     -4.20125020    -0.20908551     1.17534114
C     -3.50067988     0.55735078     0.23368188
C     -1.99438268     0.65309144     0.29736510
C     -4.21870799     1.20233481    -0.78182497
C     -5.61078328     1.09777434    -0.84227419
N     -1.41588631    -0.61102756    -0.14120445
C     -0.03893484    -0.72958172    -0.32501661
C      0.44540263    -1.83717581    -1.03687229
C      1.81647378    -2.05901238    -1.20017250
C      2.73600318    -1.18063007    -0.62445065
C      2.27790121    -0.09646756     0.11678851
C      0.89875877     0.11742744     0.27670283
C      3.23613326     0.83455460     0.74660099
O      2.83535075     1.79784876     1.38978472
C      4.68442405     0.59324591     0.58755016
C      5.60246381     1.46442119     1.18833219
C      6.97322526     1.24473914     1.04180968
C      7.43030569     0.15801418     0.29688710
C      6.51755439    -0.71126138    -0.30294864
C      5.14149444    -0.49291559    -0.15696511
C      4.18318405    -1.41732414    -0.79493545
O      4.58328079    -2.36767020    -1.45717627
H     -8.23843575     0.07791416     1.02175369
H     -8.25232675     1.10958931    -0.40795482
H     -8.06072482    -0.65139838    -0.59340531
H     -6.11231101    -0.91958445     1.85236418
H     -3.65892484    -0.73737574     1.95736419
H     -1.70105266     0.88167760     1.32921841
H     -1.64892676     1.47755446    -0.33878618
H     -3.69960196     1.78960694    -1.53607019
H     -6.14735327     1.60396390    -1.64180377
H     -1.95543431    -1.04271750    -0.88827882
H     -0.25242416    -2.54908453    -1.47405946
H      2.15699804    -2.92281406    -1.76805505
H      0.57367372     0.95825768     0.88446062
H      5.25351875     2.31513894     1.77133856
H      7.68444002     1.92221659     1.50940049
H      8.49849343    -0.01335498     0.18265459
H      6.88196121    -1.55756313    -0.88293835
