42
conf 5 ff=MMFF E=74.442 Rg=5.27 smiles=Cc1ccc(CNc2ccc3c(c2)C(=O)c2ccccc2C3=O)cc1
C     -7.59916695    -0.91065648    -0.90674061
C     -6.26038013    -0.34069653    -0.54256523
C     -5.59987343    -0.76723009     0.61464944
C     -4.33887323    -0.26087688     0.93707241
C     -3.71249474     0.67749482     0.10512769
C     -2.34249890     1.21014163     0.45294682
C     -4.36535927     1.08507197    -1.06553578
C     -5.62725520     0.57829628    -1.38691351
N     -1.34941700     0.16947255     0.22164830
C      0.01083358     0.46208671     0.31470716
C      0.52146990     1.53472233     1.05548137
C      1.90065141     1.74024505     1.17974915
C      2.79785302     0.85179689     0.58271279
C      2.31201965    -0.24105947    -0.12584165
C      0.92824114    -0.43942223    -0.24511669
C      3.24437519    -1.20021204    -0.75137908
O      2.81873410    -2.15716823    -1.38768752
C      4.69874403    -0.98878519    -0.60464186
C      5.59341625    -1.89711776    -1.18525800
C      6.96961313    -1.70405548    -1.05285217
C      7.45542225    -0.60650970    -0.34275506
C      6.56602411     0.30017476     0.23644769
C      5.18457508     0.10820481     0.10510734
C      4.25097912     1.07223006     0.72083290
O      4.67572151     2.04226534     1.33768618
H     -8.19212680    -0.18421059    -1.47233661
H     -8.17146461    -1.16777663    -0.00919238
H     -7.46959577    -1.81160342    -1.51421632
H     -6.06125159    -1.50041280     1.27247021
H     -3.83654665    -0.60955945     1.83754084
H     -2.12346075     2.09520192    -0.15737436
H     -2.34588092     1.52264849     1.50428740
H     -3.89506980     1.79762115    -1.73955491
H     -6.11333619     0.90496731    -2.30365930
H     -1.57691368    -0.40665545    -0.58657686
H     -0.14134252     2.23293755     1.55925994
H      2.26621945     2.58992451     1.75382949
H      0.56238397    -1.31293314    -0.78322233
H      5.22183170    -2.75631373    -1.74126465
H      7.66255809    -2.41081260    -1.50424702
H      8.52785628    -0.45603186    -0.23949180
H      6.95278518     1.15459562     0.78938014
