52
SMD(acetonitrile)-opt r2scan/def2-svp q=1 m=2
C 3.97849422 0.54707890 -1.20771104
N 2.58969882 0.55924920 -0.76619954
C 1.74513276 1.54863878 -1.19161574
C 0.41161020 1.54027718 -0.87770902
C -0.16408205 0.48790028 -0.09557973
C -1.56210262 0.43939128 0.22126648
C -2.49041043 1.42586904 -0.24134583
C -3.82573834 1.34497084 0.05794326
N -4.33011525 0.32658715 0.81602508
C -5.76318890 0.23139787 1.06093516
C -3.48159265 -0.63629529 1.28376296
C -2.13789905 -0.60527232 1.01286198
C 0.76155805 -0.51464664 0.34021121
C 2.08836094 -0.45788314 -0.00169483
H 4.37093099 1.57211214 -1.21130272
H 4.57279148 -0.06447370 -0.51873130
H 4.04586973 0.12870691 -2.22523314
H 2.20114385 2.33515975 -1.79645295
H -0.19262322 2.36772063 -1.25178066
H -2.16736627 2.27159152 -0.84973194
H -4.54997922 2.08406604 -0.29031127
H -5.93530606 -0.28811060 2.01162760
H -6.24469888 -0.32817012 0.24311584
H -6.19050825 1.24034399 1.11614268
H -3.94010401 -1.42521368 1.88335722
H -1.52900654 -1.40949253 1.42801239
H 0.44369546 -1.35644187 0.95686667
H 2.80818442 -1.21425652 0.31755894
C 1.70512268 -3.20119861 -2.37897483
C 1.48634947 -1.91167780 -2.99832697
N 1.30404198 -0.87322542 -3.49194785
H 2.65628623 -3.19853573 -1.82583034
H 0.88482906 -3.42529424 -1.68034882
H 1.74322892 -3.98664349 -3.14894458
C 1.87997649 2.50776358 2.46871475
C 3.24100295 2.17325795 2.10749744
N 4.33180492 1.89487183 1.81213572
H 1.21500670 1.66591090 2.22372619
H 1.81759881 2.71234178 3.54831601
H 1.55113690 3.40021567 1.91546019
C -2.08861273 -1.50122129 -2.64904407
C -3.47414794 -1.45553022 -2.23210309
N -4.58558719 -1.41338466 -1.88928808
H -1.45685052 -1.82538858 -1.80817040
H -1.96942107 -2.20990075 -3.48282356
H -1.75860889 -0.50528886 -2.98050829
C -1.61574487 2.33337326 3.31485639
C -3.05591276 2.21671621 3.40459181
N -4.21387500 2.11880934 3.46870429
H -1.22969013 2.89685204 4.17784251
H -1.16040625 1.33169897 3.30858472
H -1.34044335 2.86124793 2.38945189
