56
Properties=species:S:1:pos:R:3 SMD(acetonitrile)-opt=T r2scan/def2-svp=T q=1 m=2 pbc="F F F"
C        5.00384250      -0.04359473       0.21007131
N        3.54802221      -0.04093575       0.11486893
C        2.85996584      -1.14299217      -0.31093864
C        1.49077566      -1.15326699      -0.38223651
C        0.71521084      -0.00843824      -0.01128652
C       -0.71842862       0.00928839      -0.07714792
C       -1.48303072      -1.11881233      -0.51843414
C       -2.85074256      -1.07560313      -0.57446504
N       -3.55085031       0.04497117      -0.21337987
C       -5.00860795       0.03339459      -0.27076028
C       -2.86334534       1.14527233       0.21800876
C       -1.49421933       1.15448766       0.29217607
C        1.48007974       1.11972472       0.42938666
C        2.84804748       1.07784407       0.48181872
H        5.39091813      -0.97333049      -0.22205901
H        5.41376621       0.81393968      -0.34227074
H        5.31326939       0.02539308       1.26397255
H        3.46634109      -2.00677186      -0.59031053
H        1.02009836      -2.07154469      -0.73538445
H       -1.00254624      -2.04867961      -0.82544819
H       -3.45188388      -1.92419062      -0.90787169
H       -5.40995203      -0.67296171       0.47168628
H       -5.38560390       1.03969726      -0.05595065
H       -5.33814783      -0.27289382      -1.27375881
H       -3.46993822       2.00910084       0.49678018
H       -1.02349576       2.07338019       0.64371763
H        0.99958028       2.04937226       0.73716251
H        3.44940295       1.92645049       0.81481299
C       -6.76850868      -1.09278418       2.85450354
N       -5.31067154      -1.08119900       2.90982017
C       -4.62284386       0.01924229       3.34015034
C       -3.25379736       0.02850231       3.41428980
C       -2.47835076      -1.11716134       3.04567766
C       -1.04473824      -1.13507823       3.11207182
C       -0.28015837      -0.00713455       3.55379778
C        1.08775952      -0.04888846       3.60575364
N        1.78819816      -1.16712584       3.23812474
C        3.24412427      -1.16848458       3.33172595
C        1.10036384      -2.26975304       2.81324938
C       -0.26890941      -2.28000832       2.74199408
C       -3.24313936      -2.24475723       2.60341659
C       -4.61094749      -2.20174927       2.54782789
H       -7.14487494      -0.08741271       3.07484276
H       -7.09974289      -1.39456841       1.85066360
H       -7.16864360      -1.80240395       3.59446569
H       -5.22907976       0.88400611       3.61676652
H       -2.78299400       0.94767031       3.76494478
H       -0.76071158       0.92224735       3.86217095
H        1.68889712       0.79967274       3.93923392
H        3.55463682      -1.10363249       4.38558521
H        3.63235135      -2.09546663       2.89480697
H        3.65214207      -0.30794027       2.78272672
H        1.70687169      -3.13418211       2.53615961
H       -0.73959543      -3.19863562       2.38970984
H       -2.76264644      -3.17445095       2.29577005
H       -5.21226076      -3.05005764       2.21399906
