44
anthraquinone/red2 q=-2 m=1 E=-30285.152556eV conf=8 model=uma-s-1p2p1
C       -5.71309374      -2.80917265       0.21376259      -0.00744687      -0.00281559       0.00266137
C       -5.04330177      -1.48023173      -0.01819548      -0.00422056      -0.00343645       0.01809206
C       -3.69704238      -1.40380189      -0.35941242       0.00630039      -0.00610186      -0.00248262
C       -3.08412979      -0.18209443      -0.60477225       0.00379281       0.00267915      -0.00044168
C       -3.80627496       0.99993012      -0.50063319      -0.00072794      -0.00205681       0.00055133
C       -3.15369288       2.34050967      -0.78411591      -0.00685751      -0.00047685      -0.00370259
C       -5.14767944       0.93044471      -0.14177108       0.00413659      -0.00409997       0.00138851
C       -5.76080182      -0.29203335       0.08948499       0.00859775      -0.00374093      -0.00048123
O       -1.76154452       2.30100033      -0.81075542      -0.00040263      -0.00753051      -0.00100379
C       -1.18555964       2.20631924       0.51702487       0.00984792       0.00442086      -0.00546654
C        0.26914888       1.89614877       0.45612564       0.00598665      -0.00953647      -0.01078394
C        1.22849023       2.94862762       0.36071980      -0.00054281       0.00472928       0.01699845
C        2.56129353       2.65749144       0.31607377      -0.00288584      -0.01244281      -0.00422881
C        3.04302809       1.32306833       0.35049034      -0.00152692      -0.01193060       0.00235021
C        4.46365567       1.09183097       0.33548090      -0.00078605       0.00416904       0.00791386
O        5.31917553       2.04669196       0.27817302       0.00300242      -0.00515620       0.00242519
C        4.83313931      -0.29437427       0.39910372       0.01410218       0.00820648       0.00561671
C        6.21231916      -0.63407963       0.42180122       0.01232480       0.01469124       0.00256154
C        6.64129713      -1.92959579       0.48221534      -0.00109968       0.01266739      -0.00110976
C        5.68766122      -2.98997336       0.51503683      -0.00095770      -0.00045595      -0.00282483
C        4.35298776      -2.69925343       0.48837551       0.00316266       0.00531190       0.00734342
C        3.87125763      -1.36429754       0.43755568       0.00588486       0.00468318      -0.00284945
C        2.45410197      -1.13459322       0.43896285       0.00260850      -0.00292492       0.00187121
O        1.58473665      -2.07959601       0.46343197      -0.00481444       0.00006265      -0.00577549
C        2.08265153       0.25836749       0.41900127      -0.00487246      -0.00416779       0.00969905
C        0.71086533       0.59939806       0.48114513      -0.00151049      -0.00769566       0.00108800
H       -6.18765663      -3.17423982      -0.70102396       0.00654458      -0.00404961       0.00178639
H       -4.99541641      -3.56485183       0.53368278      -0.01289960      -0.00051085       0.00671441
H       -6.48812989      -2.73267185       0.97824478      -0.01587111      -0.00720039      -0.00347328
H       -3.10688478      -2.31137354      -0.41988614      -0.00365842       0.01074107       0.00106240
H       -2.03188449      -0.13363744      -0.85568067       0.00055886       0.01072411      -0.00693251
H       -3.47582420       2.68963579      -1.77132076      -0.00823368      -0.00023218      -0.00918327
H       -3.51871503       3.07682847      -0.04821491      -0.00336538       0.01844094       0.00003859
H       -5.71791907       1.84821800      -0.02998308       0.00202764       0.00341191      -0.00917600
H       -6.80756861      -0.32452048       0.37613992      -0.00838578       0.00531643       0.00399583
H       -1.36924463       3.16850111       1.01755043       0.00187017       0.01113507      -0.00071545
H       -1.71960170       1.42830369       1.07317322       0.00656910       0.00102557      -0.00654007
H        0.88764915       3.98097914       0.33574621       0.00278039       0.00497376      -0.01674606
H        3.31382988       3.43589202       0.26209469      -0.00056603       0.00404031       0.01151641
H        6.90892082       0.19622556       0.38964980      -0.00302825      -0.00405453      -0.00580137
H        7.70387637      -2.15666568       0.50457918      -0.00822678      -0.00336286       0.00239095
H        6.02522425      -4.02189282       0.56000708      -0.00100680      -0.01367248      -0.00065510
H        3.59927260      -3.47833564       0.51348194       0.00206769      -0.01144605      -0.01473278
H        0.01738809      -0.23312107       0.55893449       0.00172767      -0.00233223       0.00704079
