16
bm_2_methoxy_1_4_benzoquinone conf 5 ff=MMFF E=20.179
C     -2.70565809    -0.04972667    -0.27794189
O     -1.63698437     0.79052505    -0.70083077
C     -0.35877213     0.41207941    -0.31156291
C      0.56059616     1.37620572    -0.18486147
C      1.95241000     1.10977112     0.21093614
O      2.76775277     2.01459853     0.32566458
C      2.32889189    -0.28907407     0.46844782
C      1.43756397    -1.27366243     0.33955375
C      0.03787651    -1.01603237    -0.06558716
O     -0.72574983    -1.96683791    -0.18502504
H     -3.63426112     0.52124422    -0.37484811
H     -2.60219862    -0.34082823     0.77265834
H     -2.78987122    -0.92314089    -0.93065357
H      0.31346799     2.41540521    -0.36889500
H      3.35580745    -0.47089548     0.76161447
H      1.69912866    -2.30963123     0.52133081
