16
bm_2_methoxy_1_4_benzoquinone conf 0 ff=MMFF E=20.179
C      2.70378475    -0.00096692    -0.22165862
O      1.71125559     0.92106553     0.21613469
C      0.39760777     0.47077585     0.20411488
C     -0.56883683     1.38508901     0.05972963
C     -1.99969548     1.04296395     0.04016139
O     -2.85943469     1.90171250    -0.10146664
C     -2.36064593    -0.37509866     0.19388921
C     -1.42025771    -1.30863379     0.35097888
C      0.02062125    -0.97295941     0.37975019
O      0.83279813    -1.87502102     0.54730361
H      3.60660982     0.57108940    -0.45694627
H      2.39652145    -0.52682702    -1.13174886
H      2.95978834    -0.69997036     0.57948760
H     -0.33401607     2.43708490    -0.05446510
H     -3.41724555    -0.61343074     0.17501228
H     -1.66885483    -2.35687322     0.46964890
