16
bm_2_methoxy_1_4_benzoquinone conf 9 ff=MMFF E=21.411
C      2.70154779     0.09401033     0.69429328
O      1.66020454    -0.85838876     0.52482932
C      0.39329891    -0.40064170     0.21772562
C      0.04174837     0.88556993     0.06010038
C     -1.33488939     1.29901224    -0.26836105
O     -1.62328215     2.48038832    -0.40556388
C     -2.34910118     0.24581663    -0.42552628
C     -2.02850779    -1.04017531    -0.27472344
C     -0.65234895    -1.46512562     0.05434636
O     -0.40684403    -2.65952451     0.18292332
H      3.62092570    -0.44993492     0.93039032
H      2.87067399     0.65746069    -0.22899638
H      2.48401934     0.76728974     1.52970912
H      0.73688361     1.70854113     0.16150750
H     -3.35479443     0.56802720    -0.66673538
H     -2.75953431    -1.83232541    -0.38594850
