16
bm_2_methoxy_1_4_benzoquinone conf 3 ff=MMFF E=20.179
C      2.69061712    -0.22099297    -0.43790975
O      1.63088508    -1.05987422     0.00949079
C      0.35889854    -0.50257294     0.01605490
C     -0.68154917    -1.33327729    -0.11896043
C     -2.07937130    -0.87405739    -0.11879415
O     -3.00886053    -1.65821454    -0.25223544
C     -2.31992156     0.56826238     0.04451080
C     -1.30368997     1.42021760     0.19263365
C      0.10476690     0.96655715     0.20156296
O      0.99076669     1.79769022     0.36169929
H      3.54003568    -0.86458955    -0.68685296
H      2.41640669     0.33256859    -1.34211420
H      3.01360075     0.45083790     0.36227797
H     -0.53593460    -2.40054628    -0.23983168
H     -3.35336345     0.89313103     0.04015633
H     -1.46328687     2.48486030     0.31814859
