16
bm_2_methoxy_1_4_benzoquinone conf 8 ff=MMFF E=21.411
C     -2.74766649     0.32141519     0.00468509
O     -1.57527749     1.00854543    -0.41188856
C     -0.34878777     0.41357180    -0.18689324
C     -0.15175946    -0.77769005     0.40034543
C      1.19134248    -1.34987769     0.60682147
O      1.33736955    -2.43887562     1.14571299
C      2.34870446    -0.56945260     0.14422097
C      2.18300144     0.61697664    -0.44248575
C      0.84180916     1.19927918    -0.65416475
O      0.74083085     2.29338024    -1.19835184
H     -3.61153629     0.94064673    -0.25445469
H     -2.84832418    -0.63432181    -0.51969799
H     -2.75089093     0.17508857     1.08963848
H     -0.95750978    -1.40209859     0.76318968
H      3.32740311    -1.00531709     0.30419396
H      3.02129132     1.20872966    -0.79087126
