16
bm_2_methoxy_1_4_benzoquinone conf 6 ff=MMFF E=20.179
C      2.57176138     0.85547758     0.23350203
O      1.68515837     0.51928116    -0.82849002
C      0.40659661     0.11670614    -0.46546175
C     -0.24493089    -0.70182468    -1.29993770
C     -1.60667886    -1.19429327    -1.03934831
O     -2.17272496    -1.94849692    -1.81872422
C     -2.26432715    -0.74832189     0.19896819
C     -1.64487060     0.07660418     1.04529284
C     -0.27860179     0.58312951     0.78765072
O      0.22631752     1.35403051     1.59523271
H      3.59000336     0.83903153    -0.16726502
H      2.37762559     1.87096355     0.58998232
H      2.52345969     0.12642174     1.04919142
H      0.21299079    -1.04632514    -2.21999329
H     -3.26552375    -1.12042070     0.37982607
H     -2.11625530     0.41803670     1.95957401
