16
bm_2_methoxy_1_4_benzoquinone conf 1 ff=MMFF E=20.179
C      2.66714803    -0.24826487     0.56184666
O      1.47285609    -0.88031271     1.01029051
C      0.28164445    -0.40499999     0.47768513
C     -0.74947568    -1.25539662     0.41099518
C     -2.06767811    -0.87687366    -0.12178185
O     -2.98865224    -1.68027858    -0.17661518
C     -2.23798618     0.50700713    -0.59155645
C     -1.23199726     1.38129882    -0.52756591
C      0.09462795     1.01177057     0.01386990
O      0.97031462     1.86742964     0.06328120
H      3.50377970    -0.91070306     0.80459159
H      2.82924486     0.69174176     1.09672056
H      2.66498995    -0.09889682    -0.52299873
H     -0.65474016    -2.28046348     0.75031774
H     -3.21249770     0.77163315    -0.98380850
H     -1.34157831     2.40530873    -0.86533123
