16
bm_2_methoxy_1_4_benzoquinone conf 7 ff=MMFF E=21.411
C      2.74977346    -0.21708978     0.21121332
O      1.57859671    -0.98476090     0.45453144
C      0.35000945    -0.41662207     0.17760749
C      0.14984092     0.81822148    -0.31010978
C     -1.19535313     1.35755586    -0.58126394
O     -1.34423453     2.48786158    -1.02610991
C     -2.35126031     0.49315848    -0.29975961
C     -2.18244429    -0.73799196     0.18507719
C     -0.83913392    -1.28796715     0.46026221
O     -0.73530839    -2.42554337     0.90583288
H      3.61563411    -0.82616571     0.48723125
H      2.83916495     0.03466233    -0.85047096
H      2.76148696     0.68585582     0.83016055
H      0.95437196     1.50463820    -0.53888993
H     -3.33153209     0.90591169    -0.50499722
H     -3.01961186    -1.39172450     0.39968503
