16
bm_2_methoxy_1_4_benzoquinone conf 2 ff=MMFF E=20.179
C     -2.71585018     0.15646044     0.00193539
O     -1.62696400     1.05901534     0.16515799
C     -0.35209765     0.51392702     0.08660938
C      0.64037473     1.31619556    -0.31612456
C      2.03665428     0.86734876    -0.43329470
O      2.92054225     1.62354174    -0.81220426
C      2.33220460    -0.53017121    -0.08058338
C      1.36599272    -1.35127003     0.33501943
C     -0.03947604    -0.90650768     0.46339964
O     -0.87556651    -1.70471744     0.86988944
H     -3.60641369     0.74978768    -0.22732841
H     -2.55087199    -0.53229519    -0.83329129
H     -2.91285349    -0.38135144     0.93356117
H      0.45375943     2.35041509    -0.58153195
H      3.36355071    -0.84826291    -0.17387996
H      1.56701481    -2.38211571     0.60266608
