16
bm_2_methoxy_1_4_benzoquinone conf 4 ff=MMFF E=20.179
C      2.69154846    -0.39483734    -0.00236716
O      1.79826581     0.64937602    -0.37463814
C      0.44391460     0.40131478    -0.19359949
C     -0.35651869     1.45437149     0.00940174
C     -1.80950952     1.33098687     0.20531703
O     -2.51345793     2.31308315     0.39663391
C     -2.38716983    -0.02164665     0.16645643
C     -1.61660805    -1.09024445    -0.04526712
C     -0.15578494    -0.97505481    -0.25109362
O      0.49212777    -1.99374484    -0.46061905
H      3.68889275     0.04363995     0.10127969
H      2.42048183    -0.83665439     0.96227059
H      2.74798762    -1.15186461    -0.78957841
H      0.03966285     2.46276191     0.04203643
H     -3.45752515    -0.09846738     0.31477831
H     -2.02630760    -2.09301970    -0.08101114
