14
SMD(acetonitrile)-opt r2scan/def2-svp q=0 m=1
C -3.90588175 2.19406572 0.14571376
C -5.17632965 1.63464144 0.00466612
C -2.80619621 1.33510922 0.21949489
C -2.93589754 -0.05482069 0.15729128
C -4.21391066 -0.59675667 0.01638006
C -5.33129943 0.24417132 -0.05966021
H -4.33806360 -1.68202881 -0.03396579
H -6.33040893 -0.18738016 -0.16989940
H -3.75773690 3.27390381 0.19828878
H -6.05073360 2.28853483 -0.05529387
H -2.04892637 -0.68743537 0.21923940
N -1.46390691 1.91486423 0.36842789
O -1.36872184 3.13404005 0.42536297
O -0.51105734 1.14862848 0.42866234
