21
ferrocene/ox q=1 m=2 E=-44912.430687eV conf=0 model=uma-s-1p2p1
Fe      -0.00000003      -0.00000000      -0.00000017       0.00001271      -0.00000218       0.00001800
C        1.20822317       0.00131738       1.71698751       0.00542126      -0.00200634       0.00059548
H        2.28608982       0.00019777       1.70192824      -0.00499313       0.00181397      -0.00141214
C        0.37210847       1.14949506       1.71698739       0.00360463       0.00459537       0.00060158
H        0.70625254       2.17426188       1.70192830      -0.00327627      -0.00421168      -0.00141202
C       -0.97824697       0.70910960       1.71698750      -0.00326171       0.00484581       0.00059835
H       -1.84960200       1.34356997       1.70192821       0.00299706      -0.00442098      -0.00141157
C       -0.97669806      -0.71124089       1.71698751      -0.00563993      -0.00163922       0.00060050
H       -1.84936958      -1.34389009       1.70192831       0.00514203       0.00149533      -0.00141120
C        0.37461383      -1.14868122       1.71698752      -0.00017275      -0.00579008       0.00059783
H        0.70662882      -2.17413952       1.70192825       0.00017381       0.00531947      -0.00141191
C        1.20822194      -0.00131729      -1.71698747       0.00557038       0.00199524      -0.00059637
H        2.28609034      -0.00019786      -1.70192830      -0.00505833      -0.00181278       0.00141033
C        0.37461332       1.14867971      -1.71698746      -0.00010468       0.00597047      -0.00060021
H        0.70662886       2.17414016      -1.70192825       0.00014798      -0.00540192       0.00141006
C       -0.97669675       0.71123975      -1.71698745      -0.00579123       0.00176363      -0.00060229
H       -1.84937013       1.34389057      -1.70192824       0.00521186      -0.00154689       0.00140901
C       -0.97824538      -0.70910838      -1.71698740      -0.00343863      -0.00498872      -0.00060253
H       -1.84960266      -1.34357051      -1.70192828       0.00308004       0.00448146       0.00140963
C        0.37210779      -1.14949370      -1.71698745       0.00367542      -0.00473683      -0.00060025
H        0.70625275      -2.17426240      -1.70192826      -0.00330055       0.00427694       0.00140997
