42
SMD(acetonitrile)-opt r2scan/def2-svp q=0 m=1
C 5.06410872 -0.21229024 -0.53168364
N 3.64234666 -0.29356423 -0.17464257
C 2.79855215 0.64295887 -0.66165803
C 1.44936682 0.60056265 -0.37007763
C 0.94387867 -0.42932547 0.44075975
C -0.49891488 -0.51811578 0.73642671
C -1.45065330 -0.10804036 -0.20958738
C -2.79852954 -0.19504524 0.08920687
N -3.21174020 -0.67089066 1.28192121
C -4.64400016 -0.75489270 1.59298314
C -2.31923731 -1.06857897 2.21571782
C -0.96137277 -1.01203423 1.96747741
C 1.84724736 -1.37853458 0.94186720
C 3.18800546 -1.29242736 0.61042618
H 5.48131193 0.71366546 -0.11322563
H 5.58662841 -1.08161969 -0.12118644
H 5.14412437 -0.20295454 -1.62528640
H 3.24438566 1.41860665 -1.28626977
H 0.80346974 1.38392613 -0.77059731
H -1.15860090 0.26349126 -1.19346796
H -3.57715630 0.10719655 -0.61225042
H -4.82558456 -0.21573205 2.53008494
H -4.92055818 -1.81228692 1.70409574
H -5.21410957 -0.29898832 0.77786550
H -2.73354116 -1.42700721 3.15932049
H -0.27303738 -1.32656980 2.75412608
H 1.51678938 -2.21374765 1.56207279
H 3.92707123 -2.01714238 0.95463963
F 2.45088086 -3.88129636 -3.18667461
P 2.90677174 -2.31681418 -3.19160438
F 3.97811202 -2.62569666 -1.98859824
F 4.05652791 -2.64385263 -4.29819401
F 1.76048413 -1.97800833 -2.07307463
F 3.36890591 -0.74036408 -3.18296284
F 1.83903709 -1.99427547 -4.37954095
F -3.33197002 1.33748322 3.52604040
P -3.01913407 2.73428054 2.71966980
F -2.11652145 3.24984295 3.97420268
F -1.69489897 2.04137597 2.05101148
F -4.34657887 3.40739817 3.38260020
F -2.70776493 4.11428991 1.91167851
F -3.92381126 2.19949608 1.46070343
