42
SMD(acetonitrile)-opt r2scan/def2-svp q=0 m=3
C 3.75145479 3.98497734 -2.88231605
N 2.37473998 3.65090295 -3.22926862
C 1.90234136 2.38812615 -2.97193180
C 0.62271587 2.05323906 -3.25994439
C -0.38721312 2.98551094 -3.74999662
C -2.65468901 1.09774664 -4.80691730
C -3.46818613 1.30925038 -3.58224256
C -4.14206056 1.33098011 -4.86506415
N -4.69997972 0.05630082 -5.31823492
C -6.13777916 -0.17722158 -5.24849728
C -3.78517157 -0.81882863 -5.58496883
C -2.41686478 -0.35746133 -5.16746471
C 0.21804113 4.28586952 -4.05583091
C 1.52115109 4.56973609 -3.75972819
F -5.10900596 0.87954701 -1.85638661
P -3.45428185 0.82783527 -1.87460222
F -3.49728770 1.95974335 -0.73523322
F -1.43043252 3.10422566 -2.68153671
F -3.16797448 1.64191912 -7.34630654
F -1.00510285 3.12104952 -6.52393298
F -0.29421826 1.20958761 -5.57802163
F -2.06255383 -1.09139673 -4.01096041
P -1.41364524 2.36727016 -5.17255288
F -3.54343305 -0.72370959 -1.44134709
F 0.18995488 0.80048193 -2.99515679
F -3.12485722 -0.37103660 -7.67262585
F -2.57449970 3.53691321 -4.94131352
F 0.54775930 -1.50692084 -4.47314176
H 4.42819773 3.20271661 -3.25395921
H 3.86617844 4.07401665 -1.79084107
H 4.01492101 4.94002436 -3.35208419
H 2.59952865 1.66210268 -2.54822621
H -0.24635389 -1.27068034 -4.04449680
H -2.04828747 0.76409221 -1.79634375
H -4.60214673 2.21725551 -5.31074463
H -6.39581931 -0.40399295 -4.20368913
H -6.39159464 -1.02144428 -5.90043879
H -6.65650094 0.73461826 -5.56929486
H -4.02958997 -1.83335209 -5.90897775
H -1.67135856 -0.53424198 -5.94203483
H -0.40277089 5.05755139 -4.51580508
H 1.94946211 5.55384581 -3.96434958
