52
SMD(acetonitrile)-opt r2scan/def2-svp q=2 m=1
C 5.55541558 0.41763330 0.10191442
N 4.08932353 0.39033518 0.10766105
C 3.42231999 1.40032663 -0.48946553
C 2.03964907 1.43257124 -0.49678222
C 1.31757485 0.39902677 0.12373251
C -0.15894621 0.41413558 0.15770993
C -0.90777225 0.93794812 -0.90713452
C -2.28910035 0.97771193 -0.82106199
N -2.92485603 0.51963031 0.27605904
C -4.38952735 0.53473527 0.33325551
C -2.23474587 -0.01122241 1.30731835
C -0.85435063 -0.07771570 1.27580640
C 2.04149616 -0.63793303 0.73284062
C 3.42558770 -0.61764505 0.71069530
H 5.89071366 1.32682803 0.61850123
H 5.93182472 -0.46785378 0.62383525
H 5.90385836 0.42029961 -0.93925800
H 4.03432779 2.17592147 -0.95366391
H 1.53858894 2.27690578 -0.97393849
H -0.42910358 1.31141875 -1.81437926
H -2.91555874 1.37771308 -1.62043150
H -4.70485381 0.79275690 1.35112361
H -4.75394862 -0.46954112 0.07173349
H -4.76908525 1.27223077 -0.38115742
H -2.82435194 -0.36729739 2.15411199
H -0.32641436 -0.48734972 2.13948692
H 1.53937484 -1.47954973 1.21380849
H 4.03252297 -1.40418660 1.16271035
C 1.51162474 -2.27265427 -2.59948680
C 2.76506820 -1.54968555 -2.62473711
N 3.77420643 -0.96999506 -2.64084717
H 1.64905069 -3.27870546 -3.02346061
H 1.15088198 -2.36514234 -1.56317076
H 0.75733633 -1.73312937 -3.19255338
C 1.46557454 2.91314505 2.85875175
C 2.81789550 2.40401671 2.78141686
N 3.89942322 1.97775448 2.72280799
H 0.76217454 2.15205918 2.48927410
H 1.21853776 3.15713130 3.90242296
H 1.36241437 3.82111254 2.24494646
C -2.19857916 -3.53259050 -3.00170915
C -2.52415074 -2.83278631 -1.77905474
N -2.77274825 -2.26582845 -0.79400262
H -1.12613211 -3.77868708 -3.01497431
H -2.78074261 -4.46400281 -3.06754218
H -2.43369142 -2.90130465 -3.87160229
C -2.00743842 3.14046782 3.94720974
C -2.24711743 3.26214363 2.52489984
N -2.44807638 3.36767930 1.38306330
H -2.96519270 3.12664815 4.48866970
H -1.46324600 2.20917168 4.16413326
H -1.40832000 3.99282075 4.30048116
