56
SMD(acetonitrile)-opt r2scan/def2-svp q=2 m=1
C 4.96211581 -0.01704984 -0.06620298
N 3.50598453 -0.03975191 0.01992164
C 2.80614806 -1.14360405 -0.38319362
C 1.43602063 -1.15455150 -0.41509704
C 0.67225684 -0.00734374 -0.03173012
C -0.76268975 0.01638262 -0.08027860
C -1.53686717 -1.10524302 -0.51527967
C -2.90532811 -1.05039063 -0.56939531
N -3.59352894 0.07488843 -0.20801677
C -5.04129390 0.14023712 -0.37364877
C -2.89424329 1.17515090 0.20570070
C -1.52557206 1.17234635 0.27776217
C 1.44754698 1.12289628 0.37842990
C 2.81742192 1.08179777 0.39271152
H 5.35347462 -1.02845270 0.09976264
H 5.27921242 0.33356795 -1.06155147
H 5.36265016 0.66109059 0.69760644
H 3.40613528 -2.00840335 -0.67385106
H 0.95496333 -2.07861941 -0.73792088
H -1.06646667 -2.04397967 -0.81045848
H -3.51326960 -1.89579492 -0.89809434
H -5.46872149 -0.86107409 -0.23793730
H -5.46378037 0.82368883 0.37347815
H -5.29386618 0.50679373 -1.38165573
H -3.49378700 2.04711171 0.47524724
H -1.04564907 2.08690784 0.62813622
H 0.97604943 2.05198915 0.70113812
H 3.42625670 1.93392189 0.70217659
C 4.83285458 -1.18121528 3.27547451
N 3.38523053 -1.11567260 3.10892629
C 2.68584561 -2.21582376 2.69503995
C 1.31720029 -2.21280636 2.62279253
C 0.55441242 -1.05676738 2.98092022
C -0.88046978 -1.03296695 2.93245424
C -1.65587217 -2.16314837 2.52228517
C -3.02575669 -2.12209210 2.50843381
N -3.71430215 -1.00066994 2.88155252
C -5.17035657 -1.02338612 2.96848974
C -3.01432416 0.10327996 3.28438676
C -1.64422498 0.11427126 3.31590701
C 1.32871384 0.06474970 3.41607229
C 2.69713764 0.00967425 3.47038744
H 5.25517975 -1.86813113 2.53145761
H 5.26108947 -0.18080452 3.13555763
H 5.08476100 -1.54354183 4.28516801
H 3.28529490 -3.08782544 2.42543299
H 0.83716564 -3.12722593 2.27218957
H -1.18445939 -3.09217021 2.19924213
H -3.63462057 -2.97420932 2.19900305
H -5.48691173 -1.37211298 3.96467069
H -5.56198807 -0.01235030 2.80083977
H -5.57120849 -1.70296141 2.20613066
H -3.61430137 0.96807100 3.57509729
H -1.16305388 1.03838593 3.63844213
H 0.85843106 1.00359155 3.71111932
H 3.30517833 0.85498820 3.79915927
