14
SMD(acetonitrile)-opt r2scan/def2-svp q=0 m=1
C 1.53671709 -1.21130855 -0.00001516
C 2.23857086 0.00003775 -0.00003656
C 1.53669576 1.21137168 -0.00002012
C 0.14150634 1.21820265 0.00001768
C -0.57323745 0.00001304 0.00003977
C 0.14152780 -1.21816397 0.00002267
H -0.40839279 -2.16328784 0.00003936
C -2.00218482 0.00000026 0.00007891
C -3.22174993 -0.00001294 0.00011997
H -4.30007299 -0.00002241 0.00014593
H -0.40843088 2.16331683 0.00003052
H 2.08097703 2.16049612 -0.00003675
H 3.33267926 0.00004734 -0.00006591
H 2.08101503 -2.16042344 -0.00002792
