56
cfg2 ip=3.2 off=1.6 anti E=-31287.8678 fmax=0.047
C        4.34912968      -0.00181955       0.02941142       0.01193488      -0.00623868      -0.00300861
N        2.89196922      -0.08581837       0.16608650      -0.00311451       0.00652955      -0.00913307
C        2.20817841      -1.19661724      -0.20694813      -0.00808269      -0.01135166      -0.00331416
C        0.85129677      -1.24938372      -0.19436110      -0.00049585       0.01274508      -0.02453578
C        0.06585898      -0.11637423       0.18783715      -0.00309433       0.00453398      -0.01523329
C       -1.33162065      -0.03992690      -0.04669686       0.00303676      -0.01079464       0.00139226
C       -2.06629631      -1.10470318      -0.65834368      -0.01016363      -0.00084351       0.02265032
C       -3.34845557      -0.93500942      -1.06807452       0.02141879      -0.01816198      -0.01998548
N       -4.00973016       0.23930318      -0.90551011       0.01184695      -0.00487739       0.03034476
C       -5.37190775       0.42449398      -1.41827364       0.00998876      -0.00483765       0.00808048
C       -3.35263510       1.28028681      -0.32808048       0.00224598       0.00465071       0.00950092
C       -2.07020002       1.17734472       0.10182620       0.00360036       0.00299526      -0.01338817
C        0.83454126       1.01557428       0.61218582      -0.00848696       0.01433269      -0.00375079
C        2.18816823       1.00469746       0.57626702      -0.00045450       0.00477513       0.00074754
H        4.74020829      -0.97352965      -0.25666757      -0.01043383      -0.01814250       0.00274441
H        4.60802100       0.72154708      -0.74146603       0.01452591       0.00959288       0.00381520
H        4.79693934       0.29814745       0.97478200       0.00148328       0.02081858       0.00216512
H        2.80716006      -2.03350635      -0.53691919       0.00092188      -0.01030194      -0.01411884
H        0.39885741      -2.16446706      -0.54317786      -0.02490097      -0.01136198       0.00719116
H       -1.61428548      -2.06406128      -0.85959464       0.00392947       0.00432519       0.00728875
H       -3.89190762      -1.71914660      -1.57538494      -0.01999278      -0.02495872       0.01207322
H       -5.78473548      -0.54439658      -1.68678281       0.00425076       0.03417324      -0.01028609
H       -5.99590338       0.87534047      -0.64834822       0.01026287       0.00457325      -0.02603088
H       -5.35936904       1.06613975      -2.29825148      -0.00775949      -0.01460829       0.01003911
H       -3.90862962       2.20451263      -0.25468668      -0.00410895       0.01924932       0.01225086
H       -1.61610404       2.06908647       0.50685523      -0.02528273      -0.01735211       0.02031555
H        0.36190016       1.93261120       0.92864616       0.00420273       0.01502946      -0.00360209
H        2.77481921       1.87389049       0.84079274       0.00989671      -0.00059072       0.01215764
C       -6.11038622      -1.06992777       2.89784000      -0.01468320       0.00263184      -0.00268296
N       -4.65459780      -0.99334764       2.72855209      -0.02973324       0.00884534      -0.00252122
C       -3.96969271       0.12546214       3.08449237      -0.00586489      -0.02608106      -0.00082877
C       -2.61484611       0.17738448       3.05788972       0.00373118       0.00040757      -0.01217965
C       -1.83043464      -0.95992272       2.68266294       0.02583599      -0.01743086       0.02040434
C       -0.42789278      -1.01929974       2.89516414       0.02165636      -0.01612582       0.01477684
C        0.30335789       0.04289038       3.51613504       0.01162374       0.02297625      -0.01563502
C        1.59713343      -0.11562993       3.89638863      -0.00092096      -0.00380822      -0.02075272
N        2.26973215      -1.27868659       3.70115871      -0.01986857      -0.00335633       0.02100098
C        3.62894046      -1.46738112       4.21647836       0.00547652       0.00334283      -0.01098637
C        1.61669611      -2.32004772       3.11541373      -0.01448133       0.00620522      -0.00684547
C        0.32666163      -2.22402537       2.71174106       0.01474100       0.00598515      -0.01482381
C       -2.59836179      -2.09966968       2.28116808      -0.00720011       0.01584301       0.00268957
C       -3.95467500      -2.08770829       2.32766713      -0.00552017       0.02386721      -0.01311216
H       -6.52800330      -0.06629863       2.88620815       0.01712300      -0.01561679       0.00158666
H       -6.54313625      -1.64264123       2.08023975       0.01155043      -0.00314479       0.01981983
H       -6.35713448      -1.54805080       3.84548113       0.00894962       0.00610282      -0.02356544
H       -4.56780099       0.96220096       3.41965873       0.00947072      -0.01323393      -0.01542254
H       -2.15782357       1.09968033       3.38156599       0.01715301       0.00619759       0.00528878
H       -0.15331570       0.99471354       3.73945389      -0.02178020       0.00036915      -0.01097065
H        2.15235896       0.67532343       4.38259242      -0.04058840      -0.01544712       0.01880315
H        3.61445266      -2.10659990       5.09809858      -0.00212888       0.00252317      -0.00997575
H        4.24974831      -1.92263494       3.44810961       0.02547897      -0.02549249       0.01001177
H        4.04825657      -0.50215191       4.48544332      -0.00542570       0.00762965       0.00407710
H        2.18579798      -3.23561884       3.01532307      -0.03595074       0.02091129       0.00264900
H       -0.11758477      -3.10749243       2.27938079       0.00578581      -0.01193590       0.00334737
H       -2.12934533      -3.02142560       1.97323211       0.01307425      -0.00134476       0.00595742
H       -4.54574176      -2.95527628       2.06453085       0.02532087       0.01527751       0.01351970
