24
SMD(acetonitrile)-opt r2scan/def2-svpd q=-1 m=2
O -0.12827619 2.61957663 0.81751913
C -0.06955033 1.41732224 0.44237923
C 1.20922469 0.75038533 0.19225370
C 2.41548547 1.46828498 0.37497365
C 3.64734877 0.87471290 0.14954755
C 3.71355651 -0.47406552 -0.27176592
C 2.54670911 -1.19836519 -0.45775343
C 1.27639837 -0.61528053 -0.23409548
C 0.06983703 -1.41762130 -0.44242986
O 0.12843472 -2.61989078 -0.81755893
C -1.20892190 -0.75060039 -0.19228666
C -2.41543846 -1.46812951 -0.37487533
C -3.64747106 -0.87483261 -0.14955608
C -3.71370390 0.47393958 0.27175992
C -2.54655712 1.19781419 0.45759350
C -1.27608231 0.61503224 0.23404805
H 2.34402045 2.50855448 0.70054655
H 4.56740820 1.44678821 0.29663891
H 4.68488832 -0.94324256 -0.45012022
H 2.57817111 -2.24081947 -0.78260460
H -2.34402261 -2.50839923 -0.70043135
H -4.56747755 -1.44699058 -0.29668033
H -4.68496806 0.94325527 0.45014681
H -2.57793504 2.24026271 0.78242455
