14
SMD(acetonitrile)-opt r2scan/def2-svp q=0 m=1
C 0.72796489 -1.16468938 0.21613753
C -0.72662005 -1.16481484 -0.21429186
H -1.25547789 -2.03657535 0.20285375
H -0.78281334 -1.21620203 -1.32264968
O -1.38940486 -0.00006968 0.25442803
C -0.72672263 1.16476654 -0.21419720
C 0.72790567 1.16474570 0.21611580
H 1.25674594 2.03657987 -0.20089067
H 0.78424000 1.21582775 1.32447304
O 1.39054321 0.00003868 -0.25295089
H -1.25560636 2.03643714 0.20310493
H -0.78300995 1.21630588 -1.32254413
H 1.25692098 -2.03651931 -0.20073081
H 0.78417422 -1.21567252 1.32450698
