39
SMD(acetonitrile)-opt r2scan/def2-svp q=1 m=2
C 5.16147412 0.72639149 -0.50072080
C 3.73248624 0.71832256 -0.03734971
C 2.73149010 0.06513049 -0.77252969
C 1.40541745 0.03243882 -0.32679839
C 1.04567557 0.65795852 0.87327187
C -0.36974461 0.66484841 1.40971293
C 2.03870883 1.31700236 1.61594166
C 3.35853431 1.34565300 1.16559775
N -1.35174435 -0.03665600 0.56919766
C -2.00038668 0.69301750 -0.42100158
C -1.52077488 1.97286910 -0.79372616
C -2.17254174 2.72263791 -1.75925922
C -3.33072559 2.23641517 -2.39219157
C -3.81550266 0.98081697 -2.06108982
C -3.15762629 0.20112099 -1.09251563
S -3.86944339 -1.34297817 -0.74717880
C -2.67106072 -2.09580855 0.25614530
C -2.87632636 -3.45686797 0.54619626
C -1.97903808 -4.14116246 1.35100928
C -0.85735221 -3.46824981 1.86832609
C -0.64845729 -2.12464353 1.60332417
C -1.55689591 -1.39241190 0.80001053
H 5.67034402 1.66188035 -0.22182042
H 5.23309274 0.59879945 -1.59128062
H 5.72959226 -0.09930574 -0.03689908
H 2.99071031 -0.42740630 -1.71558107
H 0.65305052 -0.48546723 -0.93010173
H -0.41069454 0.21198260 2.40992144
H -0.73006733 1.69409103 1.54321536
H 1.77227884 1.81515904 2.55419409
H 4.11743503 1.86799700 1.75795035
H -0.61180423 2.37218511 -0.34509618
H -1.76936321 3.70128348 -2.03176488
H -3.84205620 2.83612892 -3.14907183
H -4.70791566 0.58249314 -2.55229434
H -3.74649628 -3.96783712 0.12409113
H -2.13984875 -5.19966060 1.56943679
H -0.13104819 -4.00644423 2.48264419
H 0.24571894 -1.64450716 1.99937703
