29
SMD(acetonitrile)-opt r2scan/def2-svp q=0 m=2
C -4.55805822 0.40229343 0.73163250
C -3.19196462 -0.05077493 0.30034559
C -2.24472334 -0.49138462 1.24378786
C -0.96453411 -0.88491393 0.85168095
C -0.58832686 -0.85155022 -0.50138598
C 0.80326145 -1.26545155 -0.92568475
C -1.52600399 -0.41252181 -1.44597901
C -2.80991236 -0.02242717 -1.05056051
N 1.84462278 -0.41841022 -0.34291032
C 1.98926368 0.88458030 -0.79138157
C 2.88328444 1.74375645 -0.22048512
C 3.70177829 1.31795479 0.88300448
C 4.62864427 2.18020260 1.48735797
N 5.40772602 2.90411801 1.99274952
C 3.52231507 -0.03788421 1.33138602
C 2.61254237 -0.85394016 0.72052957
H -5.30147610 0.26178556 -0.06758894
H -4.89869087 -0.13885856 1.62764318
H -4.55345553 1.47702414 0.98619048
H -2.52110227 -0.53007395 2.30306643
H -0.24836763 -1.22712350 1.60700244
H 0.89019831 -1.21817660 -2.02241537
H 1.01739906 -2.29923454 -0.61604666
H -1.24902958 -0.38090929 -2.50540241
H -3.52916353 0.31264196 -1.80573954
H 1.34798534 1.17169277 -1.62755126
H 2.96927188 2.75792728 -0.61662626
H 4.11296258 -0.43264527 2.16074358
H 2.45148449 -1.88876728 1.02921741
