15
bm_2_methyl_1_4_benzoquinone conf 0 ff=MMFF E=-0.171
C      2.24123611     0.12358094     0.03400592
C      0.75272130    -0.02275003     0.00791871
C      0.12980510    -1.20746864    -0.06424557
C     -1.34144686    -1.32073696    -0.08832153
O     -1.89391737    -2.41024069    -0.15443815
C     -2.11959140    -0.07071933    -0.02964517
C     -1.51286520     1.11668527     0.04246903
C     -0.04048778     1.23468234     0.06681783
O      0.48887010     2.33688386     0.13334778
H      2.58379310     0.71703099    -0.82004212
H      2.56219067     0.62024226     0.95554906
H      2.74648103    -0.84705625    -0.01275717
H      0.67077549    -2.14598179    -0.10882769
H     -3.19807926    -0.16938397    -0.04814693
H     -2.06948503     2.04523200     0.08631601
