12
bm_2_fluoro_1_4_benzoquinone conf 0 ff=MMFF E=3.064
O     -0.87540248    -2.51937894    -0.03385011
C     -0.47657994    -1.36314374    -0.01831300
C     -1.42474889    -0.22957895    -0.00211206
C     -0.99975452     1.03773258     0.01492734
C      0.44294316     1.36326224     0.01833931
O      0.81937385     2.52734504     0.03399941
C      1.37308937     0.21362262     0.00193039
F      2.68726302     0.51279735     0.00507463
C      0.96186615    -1.05307866    -0.01510913
H     -2.47846521    -0.48384841    -0.00483070
H     -1.68419156     1.87771035     0.02692058
H      1.65460704    -1.88344148    -0.02697666
