36
conf 5 ff=MMFF E=81.464 Rg=4.63 smiles=Cc1ccc(CNC2=CC(=O)c3ccccc3C2=O)cc1
C      6.48366822     0.66524155     0.00906116
C      5.08597574     0.13876508    -0.12860669
C      4.38116312     0.30270926    -1.32627262
C      3.06686971    -0.15656805    -1.44484019
C      2.43301233    -0.78565198    -0.36534635
C      1.00999395    -1.27057470    -0.48199769
C      3.13249599    -0.92536731     0.84119888
C      4.44612256    -0.46562473     0.95886130
O     -4.03756975    -2.67681888     0.15423727
C     -3.44359652    -1.61114180     0.26058279
C     -1.97326319    -1.56864783     0.17227337
C     -1.26254741    -0.43744046     0.25258824
N      0.12207098    -0.34166680     0.18912248
C     -1.98792070     0.87138079     0.43208580
O     -1.36469647     1.93021202     0.45064936
C     -3.45624239     0.85305055     0.56617848
C     -4.14737995     2.05455792     0.77322474
C     -5.53812883     2.04938269     0.89549585
C     -6.24169405     0.84833583     0.81018714
C     -5.55559821    -0.34934327     0.60261068
C     -4.15986925    -0.34477422     0.48103202
H      6.46033070     1.70209857     0.35821735
H      7.01195164     0.62591769    -0.94937362
H      7.05895840     0.06439892     0.72128561
H      4.85092278     0.79376778    -2.17569619
H      2.54004695    -0.01315686    -2.38564210
H      0.72871136    -1.36443100    -1.53784445
H      0.93462768    -2.27041241    -0.03787923
H      2.64870119    -1.38449652     1.70103803
H      4.96476993    -0.57827334     1.90828523
H     -1.49787089    -2.53410864     0.04918302
H      0.41958641     0.63852668     0.12642584
H     -3.60520317     2.99652626     0.83989660
H     -6.07227630     2.98330093     1.05693000
H     -7.32544146     0.84401900     0.90510680
H     -6.11068109    -1.28369273     0.53642288
