36
conf 1 ff=MMFF E=81.464 Rg=4.63 smiles=Cc1ccc(CNC2=CC(=O)c3ccccc3C2=O)cc1
C     -6.39118079    -0.23862156     1.34380039
C     -5.06021776    -0.14979655     0.65800061
C     -4.44465293    -1.30033314     0.15264684
C     -3.18911599    -1.22444227    -0.45581717
C     -2.52541963     0.00439610    -0.56667309
C     -1.16398454     0.09091999    -1.20912845
C     -3.13287796     1.15093252    -0.03658138
C     -4.38778326     1.07400271     0.57178983
O      3.77846732     1.16802116    -2.71654939
C      3.28946041     0.76827641    -1.66733105
C      1.82601787     0.71572205    -1.50283575
C      1.22462065     0.26532509    -0.39528773
N     -0.14707684     0.20636780    -0.18236332
C      2.07256106    -0.22752919     0.74904023
O      1.54671428    -0.70004016     1.75407550
C      3.53985064    -0.14636518     0.62755961
C      4.34679561    -0.56253747     1.69517311
C      5.73723028    -0.49566503     1.58850754
C      6.32508906    -0.01591635     0.41843990
C      5.52343733     0.39779053    -0.64666558
C      4.12806170     0.33197244    -0.53962674
H     -6.95570019     0.69194155     1.22293505
H     -6.99786759    -1.04377957     0.91615971
H     -6.24980347    -0.43080792     2.41179204
H     -4.93844005    -2.26627006     0.23308868
H     -2.73094000    -2.13441806    -0.83691604
H     -0.97951936    -0.79853510    -1.82360596
H     -1.13900188     0.95772011    -1.88041825
H     -2.62154422     2.11025136    -0.08583106
H     -4.83447255     1.97652384     0.98290181
H      1.26055326     1.08561672    -2.34941210
H     -0.36299912    -0.30971109     0.67802571
H      3.89527910    -0.93930107     2.61162584
H      6.36145618    -0.81862387     2.41893966
H      7.40853769     0.03601157     0.33490073
H      5.98846572     0.77090169    -1.55772942
