36
conf 4 ff=MMFF E=81.464 Rg=4.63 smiles=Cc1ccc(CNC2=CC(=O)c3ccccc3C2=O)cc1
C     -6.44123051    -0.93537213    -0.49032659
C     -5.06124731    -0.34809407    -0.51094414
C     -4.30284016    -0.36028572    -1.68683043
C     -3.00420569     0.15523309    -1.69910250
C     -2.43989255     0.68959761    -0.53341319
C     -1.03380370     1.23424930    -0.53632369
C     -3.19237237     0.67697182     0.64902607
C     -4.49028681     0.16111084     0.66037997
O      3.92396634     2.74405490     0.46432515
C      3.36916215     1.65271166     0.43358206
C      1.90644249     1.56760795     0.27643933
C      1.23874266     0.40973121     0.20791518
N     -0.13727634     0.27210658     0.07375779
C      2.00791255    -0.88415028     0.28307653
O      1.42716270    -1.96051242     0.16455372
C      3.46774406    -0.82793628     0.48312214
C      4.19734561    -2.01926796     0.59522618
C      5.58072643    -1.97763743     0.77875310
C      6.23870120    -0.75007805     0.84923215
C      5.51431180     0.43768115     0.73640534
C      4.12590492     0.39640380     0.55341569
H     -6.93168502    -0.81437529    -1.46194220
H     -7.06821227    -0.43344200     0.25411732
H     -6.39061157    -2.00168071    -0.24959654
H     -4.71807932    -0.77581506    -2.60238812
H     -2.43465154     0.13015403    -2.62549080
H     -1.01630748     2.18398724     0.01166017
H     -0.71421907     1.44832328    -1.56334965
H     -2.76226571     1.06017046     1.57225342
H     -5.05079429     0.15498849     1.59252007
H      1.39827231     2.52318762     0.23290055
H     -0.39270525    -0.70602215    -0.10300163
H      3.69091797    -2.98166301     0.54014541
H      6.14475531    -2.90380817     0.86625544
H      7.31671008    -0.71731776     0.99191521
H      6.03390839     1.39291034     0.79173149
