36
conf 7 ff=MMFF E=81.494 Rg=4.63 smiles=Cc1ccc(CNC2=CC(=O)c3ccccc3C2=O)cc1
C     -6.49674236     0.39801873     0.49833072
C     -5.08238220     0.01492729     0.17821345
C     -4.33025166    -0.74035441     1.08436059
C     -3.02288159    -1.12164309     0.77423128
C     -2.44920923    -0.76900263    -0.45511057
C     -1.03270943    -1.17238263    -0.77871733
C     -3.20571547    -0.01593864    -1.36249347
C     -4.51369545     0.36474161    -1.05153056
O      4.08065897    -2.48028628    -0.83382432
C      3.47646378    -1.47040072    -0.49490343
C      2.00366503    -1.46744256    -0.44658497
C      1.27943306    -0.39290699    -0.11181849
N     -0.10690938    -0.33857436    -0.03743808
C      1.99026967     0.89235005     0.22617560
O      1.34907224     1.90922522     0.48052669
C      3.46475965     0.90539587     0.22703276
C      4.14630972     2.07907824     0.57648985
C      5.54220497     2.10423948     0.57476843
C      6.26032230     0.96150264     0.22368835
C      5.58366433    -0.20813248    -0.12607526
C      4.18288699    -0.23418728    -0.12334279
H     -7.18261304    -0.38195922     0.15376430
H     -6.76431496     1.34369116     0.01527690
H     -6.62983668     0.53573012     1.57654587
H     -4.75491080    -1.03173098     2.04239778
H     -2.44676783    -1.69200290     1.50017560
H     -0.89460175    -2.22977360    -0.52290808
H     -0.84816969    -1.07366909    -1.85523353
H     -2.78257310     0.28150345    -2.31939599
H     -5.08508608     0.94216856    -1.77500662
H      1.53962500    -2.41494070    -0.69188515
H     -0.42966486     0.62667769     0.09450504
H      3.59265209     2.97570652     0.85077220
H      6.06895008     3.01633796     0.84715271
H      7.34805198     0.98089325     0.22194172
H      6.15004571    -1.09685926    -0.39971452
