36
conf 8 ff=MMFF E=81.494 Rg=4.63 smiles=Cc1ccc(CNC2=CC(=O)c3ccccc3C2=O)cc1
C      6.46913748     0.16454445     1.00327518
C      5.05168045    -0.20752366     0.68385017
C      4.29767240    -0.96791165     1.58458554
C      2.98647130    -1.33930450     1.27596347
C      2.41214586    -0.97121767     0.05227585
C      0.99341019    -1.35762260    -0.28207319
C      3.17121003    -0.21316370    -0.84989473
C      4.48165340     0.15794699    -0.54038578
O     -3.98424628    -1.75903661    -1.99141666
C     -3.40517171    -0.95076234    -1.27646922
C     -1.94300478    -1.02248818    -1.10793893
C     -1.25000623    -0.18981536    -0.32205649
N      0.12700225    -0.20425452    -0.13746238
C     -1.98848772     0.87605001     0.44604876
O     -1.38493292     1.61643725     1.21896916
C     -3.44658285     0.99720612     0.26282562
C     -4.14738987     2.00632379     0.93715226
C     -5.52893699     2.12627905     0.77560013
C     -6.21376319     1.24079625    -0.05610197
C     -5.51809378     0.23411780    -0.72758784
C     -4.13152533     0.11410118    -0.56668893
H      7.14958734    -0.61576203     0.64884189
H      6.74051263     1.11347455     0.52880460
H      6.60629325     0.29077181     2.08238595
H      4.72565801    -1.27213315     2.53726554
H      2.41728191    -1.91803623     2.00003200
H      0.96004614    -1.74318234    -1.30814003
H      0.65631165    -2.16599390     0.37791294
H      2.73845285     0.09745095    -1.79881899
H      5.05211534     0.74094109    -1.25994315
H     -1.45735088    -1.80048930    -1.68423115
H      0.40225460     0.43105770     0.62010138
H     -3.61990462     2.70088003     1.58911899
H     -6.07056897     2.91093037     1.29956283
H     -7.29035445     1.33381347    -0.18193752
H     -6.05857650    -0.45442512    -1.37511012
