36
conf 0 ff=MMFF E=81.464 Rg=4.63 smiles=Cc1ccc(CNC2=CC(=O)c3ccccc3C2=O)cc1
C      6.36688616    -1.00056521     1.02622376
C      5.03305220    -0.38854437     0.71639994
C      4.28984281     0.23892609     1.72236141
C      3.03187732     0.77921215     1.44311995
C      2.49355576     0.69839085     0.15218820
C      1.13040488     1.26652319    -0.15242021
C      3.22899681     0.04662230    -0.84724912
C      4.48622536    -0.49346122    -0.56705756
O     -3.71750353     2.41093990    -1.89837814
C     -3.24229808     1.44524935    -1.31407833
C     -1.78772028     1.35017790    -1.09809351
C     -1.20425456     0.33811726    -0.44502406
N      0.15980256     0.19212132    -0.22502294
C     -2.06532765    -0.76500987     0.11449473
O     -1.56212555    -1.67575893     0.76810051
C     -3.51961239    -0.71649392    -0.12422428
C     -4.33428595    -1.75212054     0.35320882
C     -5.71317943    -1.71318349     0.13804309
C     -6.28196120    -0.64253320    -0.55115243
C     -5.47273088     0.39071438    -1.02632989
C     -4.08880610     0.35147212    -0.81167688
H      6.87637006    -0.44508083     1.82063551
H      7.01937964    -0.98079399     0.14696790
H      6.23684233    -2.03858303     1.34736221
H      4.68504370     0.30792414     2.73349266
H      2.47311014     1.25826915     2.24405763
H      1.17471440     1.81532564    -1.10081377
H      0.83930841     1.98530532     0.62305183
H      2.81655558    -0.05311104    -1.84931185
H      5.03366359    -1.00171666    -1.35767663
H     -1.21165889     2.16300079    -1.52322527
H      0.34630984    -0.58249632     0.42182263
H     -3.89776391    -2.59094161     0.89314522
H     -6.34335827    -2.51869473     0.50899322
H     -7.35644727    -0.61174699    -0.71868941
H     -5.92290764     1.22411984    -1.56324494
