36
conf 2 ff=MMFF E=81.464 Rg=4.63 smiles=Cc1ccc(CNC2=CC(=O)c3ccccc3C2=O)cc1
C      6.44318656     0.98103542    -0.14762701
C      5.06433222     0.42991865    -0.35906065
C      4.31441248     0.80580214    -1.47904763
C      3.01672981     0.32028264    -1.65974446
C      2.44487776    -0.54807419    -0.72071908
C      1.03972262    -1.06411664    -0.90231892
C      3.18878490    -0.90238455     0.41312946
C      4.48575287    -0.41625463     0.59305540
O     -3.92265618    -2.80603119    -0.45422375
C     -3.36941762    -1.75908483    -0.14179190
C     -1.90574466    -1.63054351    -0.25414432
C     -1.23944947    -0.50871621     0.04377057
N      0.13727395    -0.33727904    -0.03112880
C     -2.01123953     0.69897651     0.50983437
O     -1.43140124     1.75881501     0.73434587
C     -3.47238042     0.58463629     0.67194205
C     -4.20470554     1.68336131     1.14169109
C     -5.58930680     1.58795595     1.29313819
C     -6.24578100     0.39926251     0.97557824
C     -5.51866533    -0.69584483     0.50622322
C     -4.12904216    -0.60094565     0.35521176
H      6.38912023     1.92060475     0.41077488
H      7.06558409     0.27299433     0.40962523
H      6.94083299     1.16619915    -1.10537825
H      4.73558334     1.48386909    -2.21808082
H      2.45383757     0.63110716    -2.53710355
H      0.72789491    -0.94975074    -1.94751000
H      1.01980331    -2.13677620    -0.67516771
H      2.75264416    -1.55208504     1.16933762
H      5.03951396    -0.69919905     1.48545982
H     -1.39572436    -2.52613133    -0.58740918
H      0.39237924     0.64738025     0.10522907
H     -3.69945856     2.61524321     1.39074224
H     -6.15545667     2.44202468     1.65868191
H     -7.32473898     0.32471924     1.09317296
H     -6.03709846    -1.62097063     0.25951210
