36
conf 6 ff=MMFF E=81.494 Rg=4.63 smiles=Cc1ccc(CNC2=CC(=O)c3ccccc3C2=O)cc1
C      6.42638359    -1.16234109     0.00774015
C      5.05260394    -0.57184034     0.12473700
C      4.42766506    -0.00441491    -0.99093871
C      3.16030792     0.57121259    -0.87587453
C      2.50147767     0.60512790     0.36086627
C      1.12773693     1.21626530     0.47600667
C      3.13095970     0.03971460     1.47747506
C      4.39902186    -0.53560617     1.36149460
O     -3.80330390     2.99354345    -0.14548899
C     -3.30387555     1.87582235    -0.17801405
C     -1.84008333     1.71486222    -0.12430121
C     -1.22894971     0.52418944    -0.12845161
N      0.14425700     0.31569505    -0.09282874
C     -2.06620435    -0.72792006    -0.17982683
O     -1.53422481    -1.83426910    -0.12644651
C     -3.53150801    -0.59482476    -0.27710255
C     -4.32663096    -1.74552544    -0.36558867
C     -5.71537874    -1.63118920    -0.45200517
C     -6.31339756    -0.37136480    -0.44882855
C     -5.52360079     0.77600882    -0.35935738
C     -4.12986504     0.66178698    -0.27381415
H      7.18152124    -0.39182980     0.19102113
H      6.56572027    -1.97375302     0.72983720
H      6.58643881    -1.58501785    -0.98973778
H      4.92071932    -0.01270750    -1.96042191
H      2.68198073     0.98980685    -1.75916303
H      0.89007811     1.41649463     1.52772495
H      1.12033833     2.18059205    -0.04610712
H      2.63876700     0.04172985     2.44749120
H      4.87196181    -0.96115935     2.24385187
H     -1.28225745     2.64286267    -0.09422428
H      0.36099585    -0.67805273     0.04421345
H     -3.86718481    -2.73274881    -0.36758907
H     -6.33037349    -2.52592410    -0.52135014
H     -7.39554958    -0.28195831    -0.51582410
H     -5.99654706     1.75673262    -0.35683726
