36
conf 9 ff=MMFF E=81.494 Rg=4.63 smiles=Cc1ccc(CNC2=CC(=O)c3ccccc3C2=O)cc1
C      6.42927583     1.08761934     0.52014618
C      5.04887462     0.50099306     0.52355372
C      4.35591463     0.32488887     1.72640021
C      3.08129560    -0.24757706     1.73387857
C      2.48434999    -0.67042794     0.53905401
C      1.10391519    -1.27731326     0.53817276
C      3.18254450    -0.49668708    -0.66389011
C      4.45642990     0.07598538    -0.67044372
O     -3.81566690    -2.91962732    -0.44189564
C     -3.30856931    -1.81090996    -0.32619657
C     -1.84627019    -1.67194213    -0.20851176
C     -1.22797968    -0.49525227    -0.05255696
N      0.14465097    -0.30605091     0.05002003
C     -2.05542645     0.76237455     0.01899072
O     -1.51860246     1.84931581     0.21957946
C     -3.51767620     0.65624215    -0.13865867
C     -4.30245636     1.81714895    -0.11465491
C     -5.68842111     1.72759988    -0.25693139
C     -6.29400086     0.48223289    -0.42163494
C     -5.51455452    -0.67543358    -0.44443819
C     -4.12357648    -0.58594607    -0.30288555
H      6.62367562     1.62396262    -0.41461347
H      7.17345130     0.29340528     0.63390294
H      6.55044238     1.80630473     1.33748312
H      4.80302652     0.63818094     2.66728576
H      2.55836940    -0.35968523     2.68106741
H      0.83153476    -1.59834561     1.55080930
H      1.10730793    -2.17289076    -0.09468892
H      2.73012000    -0.80290293    -1.60503554
H      4.98024312     0.19424817    -1.61633182
H     -1.29542456    -2.60246361    -0.27141619
H      0.36303677     0.66229994     0.31058301
H     -3.83709520     2.79307866     0.01460570
H     -6.29535760     2.63030330    -0.23870908
H     -7.37399732     0.41210386    -0.53220007
H     -5.99338383    -1.64483265    -0.57284241
