36
conf 3 ff=MMFF E=81.464 Rg=4.63 smiles=Cc1ccc(CNC2=CC(=O)c3ccccc3C2=O)cc1
C      6.42415107     0.20779758     1.13997533
C      5.07212533    -0.02748780     0.53471484
C      4.31376873    -1.14286291     0.90636171
C      3.04052002    -1.34430214     0.36869837
C      2.50046760    -0.43172031    -0.54786559
C      1.11939526    -0.64663241    -1.11372161
C      3.25112826     0.69806385    -0.89847491
C      4.52493882     0.89852435    -0.36034457
O     -3.92521105    -1.83018884    -2.11942493
C     -3.38123968    -1.10979604    -1.29183102
C     -1.91377472    -1.11001079    -1.15754909
C     -1.25261156    -0.32959206    -0.29441137
N      0.12512510    -0.29916563    -0.11754352
C     -2.03276399     0.61218569     0.58639198
O     -1.44817895     1.38097863     1.34605824
C     -3.50489554     0.60201933     0.50265678
C     -4.25159856     1.44139858     1.34053422
C     -5.64569176     1.44417598     1.26533478
C     -6.29709496     0.61250881     0.35494907
C     -5.55543060    -0.22326604    -0.48151015
C     -4.15647433    -0.22725314    -0.40557088
H      6.91885771    -0.74130995     1.37169628
H      6.32554869     0.78989210     2.06137169
H      7.07373416     0.75095266     0.44552990
H      4.70731569    -1.86112705     1.62211402
H      2.46228958    -2.21306612     0.67706055
H      1.01577228    -1.69529140    -1.41732369
H      0.98087950    -0.03500725    -2.01342680
H      2.84746138     1.43515883    -1.58910123
H      5.08698363     1.78621963    -0.64218792
H     -1.39865621    -1.80700597    -1.80725172
H      0.39977547     0.47990372     0.49142670
H     -3.75021589     2.09439587     2.05321632
H     -6.22312163     2.09611349     1.91735532
H     -7.38339283     0.61468392     0.29589080
H     -6.06988603    -0.86988718    -1.19053728
