21
bm_2_3_5_trimethyl_1_4_benzoquinone conf 0 ff=MMFF E=4.483
C      3.10429815     0.73990892     0.08191682
C      1.72908478     0.15745635    -0.01377897
C      1.49759032    -1.12560507    -0.30669460
C      0.13705594    -1.67787292    -0.39489011
O     -0.01934229    -2.86163089    -0.67168397
C     -1.01333326    -0.76221117    -0.14383572
C     -2.35134584    -1.44002681    -0.23884669
C     -0.79783551     0.53651942     0.14436991
C     -1.86023801     1.57151546     0.39215501
C      0.59395380     1.08007862     0.23511023
O      0.79785330     2.25815514     0.51071142
H      3.23089010     1.54792049    -0.64616032
H      3.28244225     1.14192601     1.08473650
H      3.87863325    -0.00884340    -0.11678355
H      2.30003715    -1.83000395    -0.49535262
H     -3.18422947    -0.81338472     0.08510049
H     -2.37369371    -2.33290059     0.39610035
H     -2.54745304    -1.74582895    -1.27200852
H     -2.87301752     1.21699297     0.19239473
H     -1.82550344     1.90684201     1.43416795
H     -1.70584694     2.44099307    -0.25672832
