14
SMD(acetonitrile)-opt r2scan/def2-svp q=1 m=2
C 1.39645690 -0.04582419 -0.00011918
C 0.73139130 1.21146966 -0.00010666
C -0.64404559 1.25526531 -0.00006128
C -1.39647090 0.04596317 -0.00002717
S -3.11551833 0.18582463 0.00002878
H -3.39412372 -1.14556859 0.00004927
C -0.73146257 -1.21138217 -0.00004038
C 0.64398096 -1.25511042 -0.00008581
H 1.15560026 -2.22166899 -0.00009580
H -1.30724348 -2.14072688 -0.00001531
H -1.15566427 2.22182631 -0.00005194
H 1.30718999 2.14080207 -0.00013225
S 3.11547695 -0.18612128 -0.00017342
H 3.39455105 1.14518009 -0.00019217
