12
bm_2_chloro_1_4_benzoquinone conf 0 ff=MMFF E=3.697
O     -1.22860413    -2.38138511    -0.00886144
C     -0.68358779    -1.28637981    -0.00492521
C     -1.47498634    -0.04199694    -0.01083943
C     -0.88434524     1.15588579    -0.00658754
C      0.58865093     1.29300097     0.00422902
O      1.09342810     2.40869765     0.00785648
C      1.37621280     0.03128775     0.01011352
Cl     3.09498249     0.15677374     0.02271475
C      0.78349113    -1.16556749     0.00586031
H     -2.55296141    -0.15429317    -0.01875794
H     -1.45279825     2.07870246    -0.01083565
H      1.34051770    -2.09472583     0.01003313
