24
bm_tetramethyl_1_4_benzoquinone_duroquinone conf 0 ff=MMFF E=8.395
C      2.62576402     1.33510155    -0.04873103
C      1.33683761     0.56025900    -0.03123233
C      1.22284452    -0.77876728     0.01319920
C      2.36191452    -1.76087626     0.01359729
C     -0.12104628    -1.42275419     0.05778774
O     -0.22490373    -2.64469098     0.12213132
C     -1.33683724    -0.56025969     0.03123109
C     -2.62576410    -1.33510153     0.04873093
C     -1.22284415     0.77876661    -0.01320043
C     -2.36191453     1.76087510    -0.01359605
C      0.12104658     1.42275354    -0.05778995
O      0.22490401     2.64469044    -0.12213402
H      2.75417956     1.83340284    -1.01547614
H      3.50996404     0.71988729     0.12761778
H      2.62430056     2.09894901     0.73710628
H      3.33504082    -1.30421031    -0.17581925
H      2.41751726    -2.27489091     0.97904302
H      2.22002859    -2.51247977    -0.77123817
H     -2.62430316    -2.09894832    -0.73710724
H     -3.50996282    -0.71988547    -0.12761723
H     -2.75418064    -1.83340023     1.01547634
H     -2.41752800     2.27488019    -0.97904657
H     -3.33503801     1.30421083     0.17583914
H     -2.22001944     2.51248856     0.77122828
