44
SMD(acetonitrile)-opt r2scan/def2-svpd q=-1 m=2
C -6.71411069 -1.16421134 0.46646116
C -5.68263207 -0.10227984 0.20687778
C -4.80917908 -0.20750738 -0.89315130
C -3.84704735 0.76932867 -1.14431860
C -3.71827751 1.88549355 -0.29924477
C -2.65133534 2.91954590 -0.56596378
C -4.58127456 1.99249103 0.79742396
C -5.55242039 1.01455650 1.04491414
O -1.33593537 2.37388032 -0.56067753
C -0.94651085 1.88768765 0.72281691
C 0.49559526 1.47804502 0.66946346
C 1.50509333 2.46197276 0.49487388
C 2.83734538 2.09544604 0.43409605
C 3.23449017 0.74050670 0.54815465
C 4.65425767 0.39688080 0.48327838
O 5.54455172 1.27592876 0.32743711
C 4.98834651 -1.02349579 0.60853672
C 6.34373039 -1.42678364 0.55313778
C 6.70294076 -2.76069123 0.66719382
C 5.70484175 -3.74701358 0.84286656
C 4.37022858 -3.37716830 0.89991722
C 3.97804999 -2.02214624 0.78591392
C 2.55656752 -1.67633102 0.85263057
O 1.66706956 -2.55545168 1.00989567
C 2.22421991 -0.25690188 0.72679163
C 0.86900934 0.14601133 0.78126466
H -7.38320310 -1.28774983 -0.39955627
H -6.23915778 -2.14265868 0.64140873
H -7.32888180 -0.92174918 1.34316352
H -4.89401102 -1.06955216 -1.56185001
H -3.17734076 0.66718687 -2.00325338
H -2.77807148 3.35754702 -1.56716518
H -2.72555226 3.73417972 0.17841395
H -4.49150849 2.85139848 1.46925936
H -6.21690922 1.11770238 1.90766578
H -1.09727629 2.69079205 1.47192829
H -1.57524096 1.03031553 1.02012474
H 1.21776634 3.51366313 0.40997001
H 3.61972677 2.84618472 0.30302046
H 7.10039825 -0.65083673 0.41690924
H 7.75595276 -3.05130159 0.62171609
H 5.98704824 -4.79947183 0.93291378
H 3.58524481 -4.12461558 1.03476413
H 0.10959063 -0.62826775 0.91496272
