20
SMD(acetonitrile)-opt r2scan/def2-svpd q=-1 m=2
C -3.95057074 1.99302506 0.12910779
C -5.16387576 1.39478899 -0.13262054
C -2.77054300 1.21694475 0.31193451
C -2.88863842 -0.19882456 0.21455804
C -4.10176756 -0.79739301 -0.04722815
C -5.28157634 -0.02100619 -0.23011864
H -4.15774058 -1.88619214 -0.11582906
H -3.89452574 3.08184463 0.19709913
H -6.05026410 2.01881343 -0.26792789
H -2.00214245 -0.82279124 0.34932207
C -1.50509210 1.84035883 0.58486241
C -6.54693525 -0.64439263 -0.50342938
C -1.37744530 3.24157831 0.68142816
C -0.33113941 1.08075521 0.76954295
C -6.67372332 -2.04554609 -0.60187957
C -7.72118881 0.11500036 -0.68710912
N -1.28740430 4.40665068 0.75671087
N 0.63554346 0.43774448 0.92218581
N -6.76281742 -3.21052323 -0.67976521
N -8.68827411 0.75777659 -0.83819031
