20
bm_2_6_dimethoxy_1_4_benzoquinone conf 2 ff=MMFF E=40.918
C     -2.95413464    -0.80720067    -0.41063662
O     -2.48482956     0.19835073     0.48360534
C     -1.17047218     0.60516346     0.28748873
C     -0.89409012     1.90241257     0.44725928
C      0.45675166     2.44770194     0.27901697
O      0.67979613     3.64297601     0.41526995
C      1.53042023     1.50764428    -0.05854352
C      1.31989569     0.19558534    -0.19620556
O      2.40996131    -0.59957263    -0.52933491
C      2.45360928    -1.87507955     0.10487646
C     -0.06813244    -0.36511981    -0.04161468
O     -0.29181284    -1.56380629    -0.17824971
H     -4.04566811    -0.73668412    -0.44538085
H     -2.57658979    -0.66057974    -1.42839201
H     -2.70231856    -1.80226612    -0.03367124
H     -1.66765385     2.61697474     0.70373826
H      2.51749386     1.93726904    -0.18459884
H      3.49629881    -2.20734475     0.10977363
H      2.11206680    -1.82881381     1.14462221
H      1.87940831    -2.60761062    -0.46902291
