20
bm_2_6_dimethoxy_1_4_benzoquinone conf 5 ff=MMFF E=41.049
C      2.75457561    -1.19270966    -0.02723516
O      2.51150368     0.05652603    -0.66714977
C      1.22075750     0.55844191    -0.54915489
C      1.08097179     1.88500225    -0.47450666
C     -0.22787509     2.53641923    -0.36301622
O     -0.32712986     3.75424328    -0.29966732
C     -1.41236608     1.67352523    -0.31559842
C     -1.33592372     0.34159224    -0.38621123
O     -2.52861511    -0.37096174    -0.34593310
C     -2.47606410    -1.63635525     0.30612887
C      0.00234861    -0.32567040    -0.55962533
O      0.09545507    -1.53939483    -0.71398622
H      3.83168179    -1.27030395     0.15014471
H      2.25033995    -1.26124840     0.94267909
H      2.47073069    -2.02069471    -0.68264647
H      1.94085127     2.54471085    -0.49114394
H     -2.36586460     2.17942823    -0.21666486
H     -3.49381695    -1.89162472     0.61702793
H     -2.14226579    -2.41195756    -0.38864643
H     -1.84929466    -1.60896803     1.20395661
