20
bm_2_6_dimethoxy_1_4_benzoquinone conf 3 ff=MMFF E=40.918
C     -2.64545829    -0.70956777    -1.43009684
O     -1.97079103     0.54347077    -1.50606112
C     -0.97751549     0.74508866    -0.55514063
C     -0.85728640     1.97036353    -0.03647220
C      0.15994521     2.30680782     0.96475896
O      0.23805140     3.43328166     1.43587431
C      1.08011644     1.24340315     1.38054158
C      1.02983994     0.00956415     0.87075292
O      1.94457416    -0.92160284     1.34791544
C      2.47018361    -1.81831517     0.37288095
C     -0.02385734    -0.34410382    -0.14391493
O     -0.10218500    -1.47379182    -0.61637737
H     -3.62389998    -0.58857032    -1.90510917
H     -2.10047600    -1.47231883    -1.99301352
H     -2.81275619    -1.02395634    -0.39422251
H     -1.51967936     2.77585333    -0.33177400
H      1.81727325     1.51623811     2.12682577
H      3.43151949    -2.18599316     0.74472988
H      2.65009319    -1.32212229    -0.58695780
H      1.81230840    -2.68372883     0.25486029
