20
bm_2_6_dimethoxy_1_4_benzoquinone conf 0 ff=MMFF E=40.918
C     -2.93330343     0.86503328    -0.39429554
O     -2.32605927    -0.31091767    -0.92292191
C     -1.10566682    -0.65874498    -0.35621873
C     -0.85967309    -1.95807659    -0.16649447
C      0.39614033    -2.44695849     0.41173302
O      0.58958804    -3.64187177     0.58993042
C      1.41155957    -1.45094210     0.76851732
C      1.23525645    -0.14175543     0.56922399
O      2.26111680     0.71202647     0.95673022
C      2.49920078     1.81642954     0.08801835
C     -0.05909335     0.36501200    -0.00762654
O     -0.25308921     1.56333460    -0.18634173
H     -4.00821270     0.79916780    -0.58886443
H     -2.56094500     1.75355428    -0.91154752
H     -2.79360664     0.94810995     0.68896261
H     -1.59005140    -2.71496501    -0.42812142
H      2.32711483    -1.83789350     1.20073122
H      3.53174767     2.14395810     0.24357393
H      2.39073439     1.54050641    -0.96647987
H      1.84724205     2.65499312     0.34769027
