20
bm_2_6_dimethoxy_1_4_benzoquinone conf 1 ff=MMFF E=40.918
C     -2.55581643    -1.57925801    -0.90267358
O     -2.17765934    -0.31786268    -1.44758770
C     -1.16408535     0.34645026    -0.76725628
C     -1.26125244     1.67415600    -0.65533425
C     -0.24859840     2.48429327     0.02923097
O     -0.36999433     3.69743857     0.13186971
C      0.91491261     1.78687491     0.58624989
C      1.08275610     0.46626000     0.47411098
O      2.21840509    -0.08937333     1.05123052
C      2.82824147    -1.14311394     0.31043292
C      0.03708204    -0.37058402    -0.21230640
O      0.15882540    -1.58719193    -0.31523866
H     -3.57854155    -1.78894293    -1.23083676
H     -2.55054611    -1.57182564     0.19267182
H     -1.91623142    -2.37366764    -1.29702652
H     -2.10704763     2.21472997    -1.06422489
H      1.64449878     2.40759338     1.09339249
H      3.87754751    -1.19908322     0.61612865
H      2.80338465    -0.95474116    -0.76834513
H      2.36411937    -2.10215187     0.55641735
