20
bm_2_6_dimethoxy_1_4_benzoquinone conf 6 ff=MMFF E=41.049
C      2.79777106    -0.93927769     0.55359363
O      2.53373783     0.37298403     0.06633585
C      1.19303102     0.72624648    -0.03154028
C      0.87420367     2.00202195     0.20429514
C     -0.50167878     2.50139076     0.11809764
O     -0.76509271     3.67615683     0.33603848
C     -1.55209812     1.53756986    -0.22471565
C     -1.29490986     0.24999532    -0.47145898
O     -2.37087181    -0.56587731    -0.80089134
C     -2.29224132    -1.91361697    -0.34637674
C      0.12413901    -0.25164554    -0.44078701
O      0.39956872    -1.40743613    -0.74723230
H      3.81728253    -0.94634890     0.95132154
H      2.11968372    -1.21842660     1.36720190
H      2.76026225    -1.66593957    -0.26264707
H      1.62892254     2.73133357     0.47519944
H     -2.56200374     1.92908975    -0.26582083
H     -3.31126858    -2.31090329    -0.30909080
H     -1.86973514    -1.98206800     0.66183333
H     -1.72870230    -2.52524855    -1.05632422
