20
bm_2_6_dimethoxy_1_4_benzoquinone conf 4 ff=MMFF E=40.918
C     -2.43265589    -1.15292980     1.51662616
O     -1.86031513     0.13583550     1.72292119
C     -0.98007502     0.56290738     0.73586586
C     -1.01077455     1.85466386     0.39646215
C     -0.12264260     2.42397116    -0.62213187
O     -0.18249516     3.60766777    -0.92589861
C      0.83986488     1.52231887    -1.26324131
C      0.93985980     0.23005822    -0.93946187
O      1.88027009    -0.53319940    -1.62104863
C      2.56711114    -1.50332985    -0.83482563
C      0.01824553    -0.36158961     0.09276749
O      0.07830914    -1.54865331     0.39743523
H     -3.36928832    -1.19390044     2.08112745
H     -1.77614774    -1.93137861     1.91498273
H     -2.66894532    -1.33355971     0.46239565
H     -1.70734498     2.54369475     0.85993280
H      1.47911108     1.96638112    -2.01753090
H      3.51678918    -1.72161264    -1.33291517
H      2.79388996    -1.13169078     0.17032218
H      1.99723390    -2.43565448    -0.79378489
