20
bm_2_6_dimethoxy_1_4_benzoquinone conf 8 ff=MMFF E=41.923
C     -3.29981668     0.94855519     0.34043306
O     -1.91963983     1.26911816     0.22678302
C     -1.02190543     0.24955463    -0.03410426
C     -1.34078766    -1.04395870    -0.18293491
C     -0.33198103    -2.07505609    -0.46037299
O     -0.65501707    -3.24706533    -0.60169905
C      1.06851942    -1.65545252    -0.55358983
C      1.44964691    -0.38457801    -0.40113414
O      2.80593664    -0.10554632    -0.52204288
C      3.29862734     0.96816565     0.27401962
C      0.41586851     0.67895237    -0.15688085
O      0.71700197     1.86584243    -0.06311465
H     -3.84570328     1.87511634     0.54131754
H     -3.47510620     0.26558107     1.17786611
H     -3.68223567     0.52781806    -0.59511133
H     -2.35250695    -1.42115743    -0.11201614
H      1.78963737    -2.44016539    -0.75112811
H      4.38059630     0.83709424     0.37341070
H      2.86822346     0.96152522     1.28110096
H      3.13064189     1.92565643    -0.22673845
