20
bm_2_6_dimethoxy_1_4_benzoquinone conf 9 ff=MMFF E=41.923
C     -3.32433798    -0.74871060    -0.64507951
O     -2.74558538     0.55295972    -0.64121032
C     -1.40289387     0.62451188    -0.28898760
C     -0.99254692     1.72598998     0.34503265
C      0.39858702     1.92544872     0.75869866
O      0.74876174     2.94348517     1.34085757
C      1.36353320     0.85894765     0.45990174
C      1.01519410    -0.26296581    -0.18583810
O      1.87125280    -1.30341667    -0.49908779
C      3.23895421    -1.19528269    -0.12724814
C     -0.41042544    -0.45110847    -0.63177447
O     -0.73456430    -1.45549104    -1.25973255
H     -4.40904261    -0.62886946    -0.56281448
H     -2.98952905    -1.34762395     0.20856604
H     -3.12306202    -1.25536097    -1.59300241
H     -1.68175679     2.52685867     0.58670361
H      2.36912931     1.06153483     0.80431425
H      3.75153530    -2.10271995    -0.45993485
H      3.71229903    -0.34033356    -0.62071813
H      3.34449764    -1.12785345     0.96031318
