20
bm_2_6_dimethoxy_1_4_benzoquinone conf 7 ff=MMFF E=41.049
C      2.70678872    -1.24998099     0.37350964
O      2.54429341    -0.00666310    -0.30244795
C      1.26016645     0.52516387    -0.29556240
C      1.14550279     1.85551927    -0.25220395
C     -0.15270022     2.53707456    -0.25548521
O     -0.22858194     3.75766250    -0.21851758
C     -1.35678398     1.70110481    -0.29000997
C     -1.30569069     0.36682641    -0.33433553
O     -2.51391383    -0.31880073    -0.37889870
C     -2.54261932    -1.57394019     0.29412668
C      0.02639983    -0.33224529    -0.39017877
O      0.10349441    -1.55012704    -0.51841324
H      3.76427897    -1.34803132     0.63759616
H      2.45700872    -2.08246975    -0.29001376
H      2.12549753    -1.29122983     1.30091749
H      2.01895820     2.49596656    -0.20991497
H     -2.30321463     2.22924811    -0.27522659
H     -3.58750537    -1.80174277     0.52642494
H     -1.98884997    -1.54518072     1.23868741
H     -2.17252907    -2.36815438    -0.36005372
