52
MV_solv ox2 q=2 m=1 E=-30088.4230eV fmax=0.049
C        4.93926006       0.37041643      -0.53623103      -0.03642807      -0.00245593       0.01054873
N        3.47709574       0.27593982      -0.34925305       0.01451808       0.00035349      -0.00206162
C        2.68406962       1.24373469      -0.82313488      -0.01834606       0.01414605       0.00102686
C        1.31643790       1.16239784      -0.70379201       0.03570766       0.02919650      -0.01602234
C        0.73879911       0.06486087      -0.07200190       0.00607285       0.00218391       0.00031584
C       -0.73633408      -0.04660042       0.08166981      -0.00611060      -0.00018527       0.00204238
C       -1.60205634       0.49196532      -0.86547930      -0.04051831       0.00550535      -0.02194282
C       -2.96218142       0.36979840      -0.69970051       0.01719885       0.00451022      -0.01832181
N       -3.47416096      -0.25115320       0.36870468      -0.01512528      -0.00201136      -0.00108169
C       -4.93768815      -0.40195434       0.50015041       0.03691885       0.00991577      -0.00294740
C       -2.66703939      -0.77388487       1.29898798       0.01804042      -0.00128700       0.01223660
C       -1.29947417      -0.69098502       1.17945350      -0.03587330      -0.01757742       0.02773634
C        1.59019043      -0.92318121       0.41339876       0.04007037      -0.02143789       0.00574956
C        2.95072183      -0.79442907       0.25598067      -0.01727638      -0.01625360       0.00725389
H        5.22526297       1.41774133      -0.52551164      -0.02413451      -0.01245475      -0.00092013
H        5.43201310      -0.14306425       0.28367525      -0.02135578       0.00279776      -0.00386932
H        5.19381356      -0.09910982      -1.48490794      -0.02787093       0.00338372       0.01683009
H        3.17934093       2.08289867      -1.28735946      -0.01190163       0.01635113       0.00279866
H        0.72239237       1.98033534      -1.08069928      -0.03716210       0.03102235      -0.00674713
H       -1.23873576       0.98429868      -1.75402589       0.02722934       0.01906296      -0.03585469
H       -3.67294157       0.75712580      -1.41368173       0.00790871      -0.00870784      -0.02258958
H       -5.19409483      -0.41527798       1.55510359       0.02616473       0.00014278      -0.01283189
H       -5.23080646      -1.32905937       0.01039489       0.02735201       0.01659031       0.00410327
H       -5.42219204       0.44557523       0.02506550       0.02216217      -0.00384908       0.00303462
H       -3.15060910      -1.24727103       2.13991735       0.01262608       0.00254476       0.01475550
H       -0.69254244      -1.10668454       1.96864934       0.03703358      -0.01069131       0.02851274
H        1.21401418      -1.81441973       0.89101865      -0.02761900      -0.03435625       0.02005262
H        3.65016612      -1.54022830       0.60171489      -0.00836495      -0.02075605      -0.00599948
C        3.36527407      -3.78209844      -4.52365925       0.01151106       0.03374592       0.03087290
C        3.39412534      -2.76539051      -3.47629094      -0.00600068      -0.00286627       0.00421752
N        3.41313097      -1.96564785      -2.65185513      -0.02335362       0.00305472       0.01764365
H        4.38170297      -4.04452835      -4.81313737      -0.00941668       0.01594822       0.02078201
H        2.85853278      -4.67452442      -4.15826458       0.01789175       0.02853454      -0.01135574
H        2.83662003      -3.39880073      -5.39532720       0.03029421       0.00534091       0.02288223
C        3.61324601       4.33748454       3.82657568       0.00955174      -0.03309315      -0.03537647
C        3.57969216       3.32057774       2.77928433      -0.00436856       0.00226725      -0.00776155
N        3.54755160       2.52155717       1.95455951      -0.02885180      -0.00103468      -0.02073950
H        2.59611937       4.60261226       4.11321440       0.03388520      -0.01329216      -0.01629109
H        4.14169162       3.95465085       4.69847168      -0.00252539      -0.00422557      -0.03022234
H        4.12390155       5.22780035       3.46240446       0.00137721      -0.02864119      -0.00015687
C       -3.60999837      -4.30989167      -3.80338046      -0.00887006       0.03187003       0.03613970
C       -3.57705145      -3.29162527      -2.75763373       0.00161200       0.00432369      -0.00027290
N       -3.54651309      -2.48997199      -1.93544444       0.02100235       0.01783261       0.00578184
H       -2.59285941      -4.57225034      -4.09241593      -0.03305387       0.01119130       0.01912511
H       -4.11718691      -5.20109087      -3.43669187      -0.00019118       0.02913919       0.00558670
H       -4.14195325      -3.92904719      -4.67408421       0.00331723      -0.00217763       0.02905803
C       -3.36264588       3.81017164       4.54622264      -0.01243182      -0.03351651      -0.03261585
C       -3.39083710       2.79156673       3.50048017       0.00791363      -0.00662533       0.00397643
N       -3.40809922       1.98942210       2.67832761       0.03113693      -0.02109637      -0.00250407
H       -4.37890158       4.07613838       4.83299855       0.00852868      -0.01291291      -0.02524818
H       -2.83748609       3.42712954       5.42019083      -0.03163828       0.00216142      -0.02133788
H       -2.85195945       4.70008756       4.18052735      -0.01823683      -0.03161140       0.00200853
