28
pyridinium/red q=0 m=2 E=-15197.052068eV conf=0 model=uma-s-1p2p1
C       -4.36854373       0.13835757      -1.27388335      -0.00651083       0.00165193      -0.00367639
C       -3.03395673       0.22592669      -0.58315282      -0.00420317      -0.00748531       0.00468584
C       -2.53901460       1.44329973      -0.13386343      -0.00032268      -0.00416312       0.00036017
C       -1.31307976       1.52035614       0.51471303       0.00192050      -0.00518087      -0.00458467
C       -0.55130289       0.38197144       0.72877494       0.01107980      -0.00353350      -0.00921588
C        0.79768799       0.46379865       1.40689638      -0.00066843      -0.00075407       0.00472144
C       -1.04215977      -0.84059384       0.28100554       0.00080331       0.00109406       0.00148280
C       -2.26460725      -0.91584524      -0.36364600       0.00609536       0.00353977       0.00396086
N        1.88364407       0.00365220       0.56726853       0.00584322      -0.00112447      -0.00546026
C        2.22631009       0.73000197      -0.57203575      -0.00528354      -0.01322351       0.00345991
C        3.24029128       0.32393207      -1.37814140      -0.00933519       0.00706937       0.00829106
C        3.97381233      -0.84949978      -1.09801374      -0.00906987       0.00714286       0.00904900
C        3.60406797      -1.57588614       0.05778900       0.00361531       0.00623558       0.00005473
C        2.59219558      -1.15578022       0.85816454       0.00859226       0.00974322      -0.00229481
H       -4.39001641      -0.68704036      -1.98527463       0.01015421      -0.00052651      -0.00356429
H       -5.17332397      -0.02498200      -0.55330628      -0.00123608       0.01440174      -0.00336118
H       -4.59238021       1.05775747      -1.81462037      -0.00156712      -0.00769712       0.00487790
H       -3.11297263       2.34692334      -0.30223592       0.00090628      -0.00277734       0.00851342
H       -0.94266654       2.48293770       0.84914167       0.00764593      -0.00974742      -0.01127772
H        0.98816114       1.49759615       1.71290755      -0.01353741       0.00260982       0.00381549
H        0.80479214      -0.14256588       2.31410804       0.00157079      -0.00135033       0.01218460
H       -0.45227530      -1.73883410       0.42572543      -0.00306629       0.00126613      -0.00777424
H       -2.62771645      -1.87595472      -0.71178471      -0.00103982       0.01206527       0.00446088
H        1.63166612       1.61130810      -0.76346898       0.00667286      -0.00254820       0.00034389
H        3.47069141       0.92587910      -2.24730436       0.00424499       0.00179946      -0.01000547
H        4.77780292      -1.17852523      -1.73754553      -0.00587000      -0.00311101       0.00000921
H        4.12477657      -2.48375819       0.33088416       0.00022046      -0.00654818      -0.00699794
H        2.28811661      -1.68443258       1.74950374      -0.00765494       0.00115180      -0.00205839
